439
Mode 10 - Frame 1
C 49.21415699137653 36.11267885164067 337.39121614684404
C 50.64851275039448 33.93583539403635 338.7336770262539
C 50.49276850679242 30.690275961469585 336.7946514979917
C 50.25223996452092 33.054684276969105 333.8223858602333
C 47.50475254934235 33.96510860744906 331.37127842743314
C 49.02279624989854 32.22324759117154 328.35481592816024
C 47.90430416512584 31.39202332904633 324.8309300928084
C 46.99399391771015 27.71370398037782 324.363306570691
C 46.70748309180746 27.219130960277305 328.14650100923654
C 43.35637375589468 25.428655926287693 328.12354676153495
C 41.579215588045095 23.386875216572097 330.81004855195846
C 43.15871238859455 20.140212526388314 329.50273748003855
C 40.99443713777549 17.48243260606607 331.12227974603894
C 43.29448435261879 14.448320041538912 330.85294954182626
C 41.94137941177696 10.924248642790422 330.43553162939816
C 45.448365764208184 9.510599576009577 329.8712499086806
C 49.00426644841412 10.710509508694098 330.497780434959
C 51.80646374525057 11.12603955245754 329.4720966052263
C 51.3649833432141 9.320755036183014 326.14979058098567
C 48.60626476914185 11.801005874171649 325.3544039107242
C 50.83297978810495 14.693202783408292 326.41779875003397
C 53.76223374728789 13.279679783835425 324.4344260975237
C 51.90416394402829 11.860172564593748 321.4284547199271
C 49.4006886626335 14.711112023545187 321.0516189811482
C 52.270059957290165 17.190292139564928 321.3279552657787
C 54.33024496453882 15.678681516851777 318.5023409178947
C 51.1569913010584 15.016729779791397 316.50595623375676
C 49.82064972628472 18.56529030520362 316.82891171694837
C 53.22878731619247 20.13480608849732 316.19082230865865
C 53.75699421459346 18.006254804689508 313.0727245333375
C 50.28202560193163 18.888614590869253 311.7970919319942
C 51.01088356257345 22.58022660759022 312.30636031549176
C 54.397692981479146 22.613139733130964 310.57895070783354
C 52.92771617994397 20.63750899683299 307.6722576391126
C 50.33166325531537 23.38536367103548 307.20239781055074
C 52.891676438796026 26.20060061525749 307.2795807848761
C 54.947475276503134 24.47837707183417 304.5830999763236
C 52.03669336577853 23.461000006386612 302.3596656249955
C 50.528186936846225 26.95649370260796 302.5094839364093
C 54.02038844933237 28.341691297853654 301.9417872712249
C 54.09887655122772 26.05880999535875 298.8940527720027
C 50.895749986931605 27.626716526673366 297.54268152866786
C 52.331644741001995 31.103624228601888 298.12419643152106
C 55.42089888888428 30.05087850117594 296.15404424910423
C 53.91085802094685 28.762342929012952 292.8999381384921
C 51.72016190862885 31.87094863069811 292.62243884516107
C 54.44493724383292 34.47973115995289 293.12267541630143
C 56.81151928091412 32.28308485043125 291.09205428122027
C 54.75270931690908 32.15166623901273 287.8853954759326
C 53.51950551906929 35.21992968043177 286.0136978465142
C 50.63712345632534 33.39942765850121 284.3110536379601
C 48.93176931490647 33.30769264628391 287.7414417272755
C 49.91417826943462 36.53105736774021 289.5363693202469
C 48.208278011289586 38.40745803959026 286.6815010349292
C 44.94069127766625 36.482714874397345 287.15330559380027
C 42.38581861683649 38.05672531908151 289.53890836938507
C 41.271557829119324 34.5650280470446 290.59739583887233
C 44.697696991883376 33.800624595192936 292.0993619614617
C 44.66573360270722 37.02305304556722 294.08926997367365
C 41.844571658906084 35.15434765957 295.86217319292314
C 43.710676678029515 31.877833348361133 296.4512259506819
C 46.9250521258553 33.63823309045908 297.44198789597067
C 44.93819600588224 35.767212154010856 299.8851070474806
C 43.40415504869013 32.64362123440397 301.4359430560969
C 46.724920503493834 30.79711201486046 301.5441894352669
C 48.528336874539264 33.6796384154774 303.2606102044983
C 45.594303392620674 33.86836643438203 305.67895086977285
C 45.86657514545787 30.125373884846393 306.3243421730036
C 49.62263168621723 30.596996085216972 306.731153758933
C 49.321212953974346 33.544614950484934 309.13732645694466
C 47.289721135746504 31.3201741513879 311.45080457851503
C 49.28321984704757 28.11559095607146 311.023746128846
C 52.46694222711095 30.077646317269913 311.7719607038212
C 50.96416720964117 31.504996052637605 314.9672609534592
C 49.85564366885066 27.996081839569065 315.9145470343041
C 53.312770606490844 26.433809681532416 315.63426191559705
C 54.945742603625895 29.48171026302902 317.22605824643654
C 52.637899978720675 29.576948714799855 320.25269300883883
C 52.734435834722845 25.778628485546868 320.5385008858468
C 56.537618417806286 25.57494929291309 320.6608278973402
C 56.71914131428391 28.761938275910634 322.7571924549902
C 54.533832614449715 27.314005660171052 325.54439104839105
C 54.45973241498749 23.50504654456868 325.33232755754574
C 58.26175213891296 23.313210421735594 324.9097204698739
C 59.740446217408575 26.415026477078978 326.5606942002047
C 56.83274938089957 27.10989322024272 328.9572572459831
C 57.412141824875064 30.846097446723437 328.5478753539517
C 54.88553715175539 33.36090213371127 329.85366167933387
C 52.69850672082837 35.721418760722706 327.84347793988417
C 52.1766397372388 39.33337986988078 328.8678183422076
C 49.0033664479596 41.19073962835976 327.87492775428365
C 50.26476592770653 42.4597029747885 324.51387216456584
C 52.137079089139704 39.298946814771014 323.49836715380536
C 48.962022366492036 37.319434688912814 324.2101713151355
C 46.59241610268502 39.547523344739325 322.22788777499676
C 49.03079400169017 39.689214518643425 319.30698647933303
C 48.9326736784463 35.89307706535203 319.0357750109344
C 45.14562870214239 35.81441800644959 319.3936551010652
C 44.736904163216934 38.77657947698622 317.0513732255077
C 46.82830096366702 37.01334136125552 314.42792237732107
C 44.48889561474489 34.02157358708307 314.53395876430994
C 41.52850896864934 36.40679453467802 314.5680216771612
C 42.99380503811862 38.22010451169463 311.5524269007803
C 43.54288495975233 34.92304744377225 309.7215443171444
C 39.84181811784525 34.06043894497006 309.8882598491847
C 38.74898770343478 37.63989896355766 309.21210216264643
C 40.731823599876556 37.83012358465744 305.9715327548299
C 39.42432677288282 34.368499886207765 305.06275741335435
C 35.82500392960319 35.574581040425606 305.35386038790557
C 36.83037377222075 38.86850840246816 303.745367264026
C 38.27395100271589 36.93990544115155 300.80035791278954
C 35.09419863115796 34.89229442688343 300.3365564484383
C 33.231764590242214 38.2099883607261 300.37352346190823
C 35.33532615189956 39.68397503761225 297.5600718297606
C 34.899488706852246 36.46561985650109 295.58679845919454
C 31.11837540737883 36.8173040621415 295.8389364985693
C 31.43117624762496 40.332020395219246 294.39395875553726
C 33.52980317336826 39.06059281772393 291.4863235138628
C 30.886895079787013 36.439298872980366 290.7227826599779
C 28.12408959987281 39.03822564921781 291.00524858270467
C 29.919089685622858 41.11632195628704 288.360842247508
C 30.3688232184184 38.03365971260277 286.16773980547686
C 26.637947774677794 37.29885822983697 286.4281552927849
C 25.30549169288298 40.83452321042052 285.9406351495988
C 27.972760527898515 42.09952178298608 283.4870569787785
C 29.098895793342916 39.00214988493848 281.5642578023139
C 30.103678145545555 41.01728741458998 278.4957250372812
C 32.38634482335811 43.56883468746372 280.1813229634862
C 33.435688514797214 41.43461782908543 283.1725780786285
C 37.01605134082987 41.00274813995194 281.937843772171
C 37.586201521560696 44.76676440723657 281.7392305227491
C 35.869948944709414 45.544112441199836 285.0702497513632
C 37.65288622523089 43.07346095229698 287.3728730873828
C 41.32613872891899 43.64616573112801 286.5465954719104
C 44.64403218507013 42.963745112152196 288.24727419454956
C 44.97623135401278 46.51878232161482 289.65224302744826
C 41.334740349296 46.45822322831373 290.7674614933844
C 41.731403249913534 43.11413778381545 292.53937499664266
C 44.90971416281722 44.16311914092885 294.3652811474716
C 43.23864120585461 47.29411276842359 295.7420668865175
C 40.186694431064076 45.35069170537478 296.923525122852
C 42.28611531470707 42.73631284218128 298.72026685942444
C 44.73745980931368 45.23888832178043 300.2133194634406
C 41.81244726056505 47.22733113376399 301.6155961599466
C 40.13315035957191 44.07861449547872 302.8934199471862
C 43.230436585537944 42.94495087684246 304.7896281357639
C 43.710052562978575 46.32791367830742 306.4581301049974
C 40.088954437903354 46.127069748554554 307.5998589762912
C 40.74182929377248 42.55197077538951 308.7328129761803
C 43.97353083762093 43.484433100954675 310.52767003467244
C 42.34913108580546 46.48595434517255 312.2041671892756
C 39.866147336013725 44.2683740972741 314.0396769458173
C 42.62023828115381 42.08573305210785 315.4873936657408
C 44.58344440535123 45.12781673674906 316.6341211889525
C 41.48720249327298 46.81763676907581 318.153048944781
C 41.458386205962675 44.35500284221788 321.07902648611946
C 45.2391328793143 44.53408495078223 321.28815132383
C 45.002125045421366 48.310206573115856 321.22769716825525
C 41.95951378187821 49.33780626277295 323.2875166365061
C 39.12107422552466 46.88777991161444 323.9834863613603
C 40.17119320041003 44.902957477508195 327.0630796843073
C 39.34516797680056 43.52862895919681 330.4668354985597
C 42.3460082803684 45.30687326871437 331.97820567168225
C 42.03662340128307 48.63890659591919 330.18186670869545
C 38.22750376623018 48.8737467565279 330.338816163145
C 37.57705163635688 46.945544938452535 333.58581055312055
C 34.833972356998224 45.24835069991724 331.5693845971297
C 33.34304050502653 41.77425032402538 331.85824502120204
C 35.93377642622633 39.214959373687165 330.83128682146156
C 35.4242081791133 36.29293767137379 328.46004671204594
C 35.20494329485595 32.858690134525254 330.0699825059094
C 37.285258140693074 31.418507608099112 327.19821403993683
C 40.004773208667494 33.92295108755126 326.3308658459311
C 42.017224284627225 35.96021307606146 328.85489514487585
C 42.14787476602537 39.75416361914021 328.49940539173645
C 39.255120330660574 39.70480634702214 325.98235197732623
C 36.27730926576219 42.042630718040726 326.29534424852056
C 32.856340668722424 40.429117792048146 326.00377927763986
C 31.367666677768028 43.33633263384758 324.05919661533966
C 34.2254768376238 43.18749830205428 321.5597496822635
C 33.25471458655639 39.60544375233184 320.7100585609692
C 29.655012245136977 40.62898133617728 320.0391935834303
C 30.99369558061657 43.126612219089495 317.4999499910148
C 33.399774488467195 40.53922452914873 316.0752958165575
C 30.859583654929235 37.698152319222245 316.01929837322626
C 28.146553958771882 39.8857099042117 314.52296572525904
C 30.428893570586318 41.17020525752727 311.7618272273903
C 31.53651478730362 37.72756413579413 310.58061635162846
C 28.078373043940264 36.21012376114601 311.1113830280515
C 26.461578417521608 38.82627660494834 308.8582902772407
C 29.190895847526253 38.41640523987945 306.2465355462331
C 28.90586073249981 34.61923636200761 306.31696925890765
C 25.104584910435793 34.74696935124074 306.1266113909407
C 25.448295306262594 36.85563490104828 302.98263507832917
C 28.222236657836202 34.67874355459021 301.5276784355905
C 26.09232090803014 31.563791065932143 302.0149366479185
C 23.1730532117629 33.20050545579369 300.2072820182688
C 25.446269011999618 34.604387308533525 297.50013853463963
C 27.279421372564588 31.34195329199695 296.8094551460117
C 23.935017961049553 29.568397610448276 296.3680928292585
C 22.740672247355608 32.25419908370784 293.9441115997223
C 26.084738020301447 32.13901569611928 292.1076300663896
C 25.8915047863016 28.359258135922175 291.7159809243421
C 22.221779006680084 28.547713135860857 290.6881487845615
C 22.97442607092681 31.18930273229062 288.05625667429643
C 25.883480007564483 29.05460104992216 286.8443728463404
C 23.460532970483474 26.2198998881084 286.05102461171504
C 20.871370094463103 28.45220369395299 284.3563433029922
C 22.81988826313819 28.597783030540416 281.0844602958035
C 24.433073327161775 25.158821113171093 281.18353078413685
C 25.18821581916701 22.315603719120787 283.4999345062229
C 28.608040642702402 20.79146970848323 282.9216780586531
C 27.8305296293637 17.0670916959359 283.1714701032175
C 28.954957839410067 14.503564190424338 280.61206477234606
C 27.51775331477288 10.996794812849977 280.35448762317077
C 29.44427865486437 8.11075130912216 278.81367628151594
C 27.712997141965616 4.789093579411885 278.109843381021
C 29.891621729513112 2.032214375970893 276.6746916389937
C 29.365499900216506 -1.5344188120245692 275.558635113715
C 32.501256349515984 -3.6848720817096106 275.6144450779618
C 33.280297302996 -7.391515228362377 276.0149560844279
C 37.08559902608076 -7.491059405383732 275.79217512300005
C 37.546204342078255 -3.9860023256495767 277.21485464902054
C 38.76947858155504 -2.060018624126961 274.16411793191514
C 35.76219477357905 0.25639713528573205 274.1895034991443
C 35.93426461286341 0.45313968937158045 277.9972708404126
C 39.55680937387294 1.5944641092494773 277.7800742296376
C 38.539298525024186 4.053527507655896 275.0559890728611
C 35.75784483655631 5.494365876761903 277.2154546201928
C 37.99211579545659 5.720965888585504 280.2961243698847
C 40.561701718664054 7.6245305724819845 278.2248075529293
C 37.916298237204366 10.071053786063581 276.9842936465486
C 36.63500721974098 10.299729217516562 280.5623514560671
C 39.86306463179945 11.739851253306181 281.98392142343124
C 40.35450269773206 14.30408804380151 279.19795144529985
C 36.86748363890772 15.688192074040453 279.8514793222431
C 37.39486896330986 15.474718645205666 283.6186966284049
C 40.45117129244597 17.71936952062623 283.2934218765665
C 38.59742545606367 20.112798058089492 280.9780849191639
C 35.919488160677886 20.929658714844845 283.5626820131479
C 33.14368322509357 18.382529547662774 282.9975220126492
C 31.475575746537615 16.418830125154567 285.78496398775013
C 31.979775789375047 13.086813552546962 284.02529224878924
C 29.68177723146806 10.114599268043195 284.70786611497294
C 30.845894599846165 6.87068070956896 283.0760986148626
C 28.518644792159996 3.8593007719440755 283.0643944182447
C 28.472816200225168 0.4156732175438611 281.483877855716
C 25.529917609608002 -0.11574790780950119 279.1307997285198
C 24.5460199593897 -3.292762719793233 281.00110995534703
C 23.729276324902045 -1.2680956835390442 284.1433527450332
C 21.508412679706836 1.533550726446241 282.7765875437176
C 17.819285598125475 1.9653909391316013 282.0159291651808
C 17.013100369347274 3.800583892735009 278.7924842577557
C 14.071345322759894 5.821058878888939 280.11962566055314
C 15.217466344719739 9.375839949423854 280.7851830972102
C 18.854251195420037 8.2664066179028 280.7969717660885
C 20.264089502934564 11.426441192928932 279.2041277623225
C 18.374167885391135 13.82115091928449 281.4869446350216
C 20.56068795360211 16.151676090149138 283.5246130067844
C 23.49133028122897 15.801342991881464 281.11153444774993
C 24.257405319128008 18.248843205109022 278.31187655476595
C 26.931197012478293 16.022856066030556 276.7659715354719
C 26.366669524378057 12.315481580671971 276.1033186960056
C 28.942172397820933 9.988205865253116 274.5459386714434
C 27.771007252227832 6.552988581386275 273.44292682869536
C 30.444038442915797 3.9480533169239256 272.7302106988887
C 29.878892456652444 0.48686248093749346 271.3169160034563
C 31.932188250225682 -2.2165829504269015 269.61761978397607
C 30.783810177269352 -4.0975996786951505 266.51851618061966
C 30.226713776589865 -7.869152619987241 266.5299641306548
C 28.956094731973028 -8.742172640985535 263.0687192156445
C 29.811020344599257 -12.4438022747761 262.79625785797947
C 28.323184355333876 -12.55823162842299 259.30460483097715
C 25.992695408674347 -9.548889687399262 259.6765761496376
C 26.283786836841312 -6.311020134927027 261.6771216735781
C 25.57821481375179 -6.418053373433621 265.40397930782717
C 26.064633225185144 -4.131992342265093 268.3814194368878
C 27.85136509456212 -5.319375141099955 271.4941526720697
C 25.235708470103805 -7.282017767995294 273.38062676378723
C 25.093811975920264 -5.092132221108045 276.48550715599015
C 24.24466456052959 -2.0785533733072046 274.3073999744197
C 21.310815503598825 -3.548069823571892 272.36629467922205
C 18.649311116265924 -2.9451783883738956 275.0824301308805
C 19.6415961590642 0.7265781430541909 275.13464864139104
C 19.761643716560673 0.909684003463975 271.34639315585144
C 16.290824658032758 -0.6081771915754148 271.015343583345
C 14.792878976791986 1.9699956811405608 273.40574286680715
C 17.008779436945527 4.905407336353996 272.4621353812758
C 14.026176332376446 7.186392792000414 271.78289986007644
C 13.24579184173882 7.1125926994708895 275.52986757864954
C 16.6135074534152 8.564480809333212 276.56934826088957
C 15.875942016768748 12.228115952717676 275.84577485779215
C 18.288051807842752 12.570337841325635 272.90870362912807
C 16.3153657662165 15.161406300797484 270.924338307341
C 18.046784754666465 18.52386827267911 271.0955246515205
C 20.867808983281122 17.143258488889618 273.2279131365171
C 24.564878229252955 17.16686315499723 272.32853443766624
C 25.88132582415095 13.659644126344812 271.60821441577707
C 28.780276767985264 11.905166588347042 269.91008148184426
C 29.688739315195118 8.281719207136257 269.3030404573138
C 32.81218437652708 6.151082051965229 269.51535754048024
C 33.54926592947869 2.47011968035295 269.10904906226233
C 36.20358116919176 -0.19325757809883806 268.6104917187679
C 36.26148274453483 -2.365335230472576 265.5097182405648
C 38.57595103209421 -3.931962782654202 262.9511800841874
C 38.86998384486273 -3.050322638541861 259.2758272521267
C 39.11476188112088 -6.660270827918422 258.0519122992785
C 35.347060736336026 -6.933138494352505 258.5636458926688
C 32.9875951663057 -5.697980045594208 255.8869091502263
C 31.4098985584974 -2.9647095269224026 258.030403668853
C 34.2003402315557 -1.3355240846336327 260.0235481212094
C 32.64427331979069 -0.03469506594287061 263.25058169313144
C 29.159597896419932 -0.5399221974115145 261.83952361811606
C 27.88730471904114 -0.11962172664061865 265.39978963290275
C 28.76650743480372 3.5815509838340547 265.60583397896886
C 27.166132552150458 4.065646773020665 262.1833329668436
C 23.92635413588958 2.5171143774712053 263.4324759988765
C 23.96597884581436 4.540768733354563 266.6576685020282
C 24.692711142801258 7.837340854538657 264.8917261143741
C 21.957264144976 7.269050480879296 262.2975461858639
C 19.408740673976016 6.626013981295333 265.04229385448974
C 20.658619410321485 9.650462543911273 266.98150097295303
C 20.160413418175068 11.745162704767898 263.84200460182376
C 16.665425930741932 10.325087193283018 263.3824088767228
C 15.902544463546485 11.29510575058058 266.9961673078054
C 16.89197937745459 14.933216833208705 266.5196820778663
C 20.003795844667152 14.787277985788725 268.67530760753715
C 22.622699452674777 17.483672050341635 268.0795665234949
C 25.630255930159077 15.429805611571826 266.9792988531728
C 28.632510819373195 17.572772796962603 267.8698725114531
C 31.11846107390886 15.843441969021487 265.5533557321068
C 31.824238309981528 12.676248387665632 263.60749314447946
C 32.21750343682022 9.407091986629796 265.4336065898623
C 35.48451520484042 7.970892535513413 266.69990557408033
C 36.241102895368954 4.668049080794407 264.94403028460533
C 39.195864823551105 2.7885428289945406 266.43622289791574
C 40.87719494475452 0.1162624053309746 264.31776424880655
C 42.661124645585936 -2.686624880069357 266.12138940377275
C 44.0888400087813 -2.063193220433953 269.5694015060867
C 42.934869854352826 1.2585856730267577 271.07477878720056
C 46.10578516893756 1.5783626869706935 273.15005362054075
C 48.07734018398451 1.8241884000218436 269.8816511437031
C 45.80050226424088 4.682338236827936 268.70878552115147
C 45.68310069383806 6.788260445760407 271.8849825407301
C 46.599893442587216 10.058914892203257 270.141468998706
C 43.35069275964987 9.892719327957844 268.1633714240735
C 41.187807124873245 9.07200868474909 271.19350200475634
C 42.612568370659694 12.048028043766001 273.08205960793197
C 42.3933015055133 14.211940578381517 269.9659532905159
C 38.74814911577535 13.259553009850427 269.4627083408899
C 37.93512297937008 13.932172949096849 273.12105895085216
C 39.52778289306516 17.36101460808656 272.7063091109474
C 37.22369872348925 18.186262953413355 269.7970524738607
C 34.13901153624613 16.89797814166024 271.63044132888314
C 35.196409404082246 18.983590610953524 274.64407811196463
C 34.077503458078645 22.17724618553786 272.912081935978
C 30.428942878994366 21.09690962097317 272.84983213412687
C 29.82132441203899 23.382869333777794 275.85307476791235
C 31.665244947412138 26.74088188105493 275.7455852546067
C 34.71822197050483 27.177087093831055 277.96512559468306
C 33.17310765279104 30.130788380703418 279.8006113897907
C 30.141662941123883 28.102725757808233 280.88408599580816
C 32.24826424983391 25.225627977697247 282.1957408602373
C 34.72748637201475 27.605635970610876 283.8310588905912
C 31.940802667359502 29.536376294810726 285.5504340017758
C 30.576829654290265 26.243273817138327 286.90536359560554
C 33.85011960716977 24.95083006028021 288.33679766135936
C 34.53294713627282 28.37639337919719 289.8369581383242
C 31.086521971222425 28.266771876943533 291.43294937619845
C 31.58030941842159 24.645595807723005 292.5199859005562
C 35.02284073657131 25.402144565166665 293.96147718309044
C 33.77738955644914 28.35088320195555 296.0193507124286
C 30.945795723473413 26.409779743666206 297.65386058771367
C 33.43435814968913 23.72991385938915 298.6900529216679
C 35.75765030166766 26.298582751210215 300.28134661683896
C 32.732632747908504 27.717061035601475 302.09856551404374
C 31.361553608025783 24.401392549864727 303.38509313018176
C 34.80408549183892 23.38271060437191 304.64674904216054
C 35.13275133028877 26.74478784288065 306.3902557965916
C 31.759476883407114 26.32401897280903 308.10976242940615
C 32.59262666600747 22.768645325058266 309.1856875434694
C 35.914268187168624 23.674178438285818 310.7983873565345
C 35.45919373765984 27.192210882814248 312.1634493465894
C 31.70647669349582 26.949843034205454 312.72281172774984
C 31.848192992163426 24.94980919235693 315.9655775271734
C 34.372434436664605 27.349645491844896 317.507737550598
C 32.09416921616594 30.260314877075185 316.59568692898597
C 29.204412704796347 28.48180207116415 318.3141233924326
C 31.39246231768535 28.19253319712551 321.41641015859307
C 32.056523187868336 31.93710910657047 321.31554600649145
C 28.312087879795065 32.52525115052717 320.9758406944775
C 27.771964409470435 30.451433855110626 324.1211826028726
C 30.340383948536715 32.66668831236182 325.8571172292016
C 28.889816943407496 36.105485035289554 325.10733787516943
C 25.15530870618886 35.65625621456951 325.68915222260466
C 25.172981229433482 33.24818162681704 328.6250269310151
C 27.796041694779166 31.413906557005525 330.64974290380405
C 29.86288768893596 28.42010237579493 329.5562073458451
C 29.425126039813335 24.78438393400556 330.5467307604111
C 32.029466194295786 22.348355928226503 331.8052729414541
C 31.29827451205209 20.344781802360302 328.6509839508012
C 31.698102951627728 23.235785297610164 326.2036086742816
C 35.102107136139686 24.081215669473263 327.70739390002626
C 36.18158654525374 20.491542273201073 326.91948611640373
C 34.995033247596574 20.19722889176926 323.3089357291258
C 36.653564732466286 23.580388928342604 322.7328404888199
C 40.06202604474979 21.88195265176256 322.8708876825141
C 39.02418898433559 19.751449417376776 319.8813963453
C 36.95723175171297 22.384072449744597 318.0665767060083
C 39.98362211946598 24.691948630154652 318.04491279081884
C 41.94949518021466 21.903804152637612 316.34854804426874
C 39.25596872560874 21.8361870735608 313.66415001957625
C 40.208694927208185 25.45730220090219 312.9877908080798
C 43.74567128144171 24.337291053041767 312.1092995249718
C 42.85539466186441 21.569923918460486 309.6614980568638
C 40.81097100239401 24.085059918708236 307.6759672200491
C 44.15245477831914 25.690915610624053 306.8222680876353
C 45.526908660878696 22.24743502371131 305.8861759702434
C 42.809841115333455 21.048122452607213 303.5095207641451
C 42.48864095192153 24.364202221884106 301.6589969937447
C 45.87750153318155 23.8563148129294 299.94156217497715
C 44.60585294490653 20.34001718429637 299.211689185606
C 41.41687149066728 21.77525773819834 297.6933025923532
C 43.3829950949363 24.182880303301875 295.5030963844998
C 45.452358193493154 21.293667214863646 294.1488578916604
C 42.48649135127532 19.10666626256478 293.2011915498325
C 40.40197359234738 21.751402647052206 291.4000849421554
C 42.822338560612465 24.357574319587695 290.0139437680684
C 44.17164630575797 22.561351414574773 286.9525888232408
C 46.437488449013166 25.522612405917293 286.1600908340152
C 48.09200912592766 25.402941720022614 289.58799662615763
C 49.090324354825476 21.772707341894687 289.03610808248646
C 50.90332835498602 22.719481067604274 285.8295906776629
C 52.62684868526966 25.70193355452527 287.4537996757695
C 53.735784087466726 23.26187476648764 290.16252004062136
C 55.146438371354414 20.80040290816649 287.6204048691537
C 56.854936851989144 23.767476309184207 285.92849010599036
C 59.20827355334432 23.76795121975848 288.9253612926144
C 59.3404472410266 19.9521238583563 288.68271605720383
439
Mode 10 - Frame 2
C 49.21717600708098 36.12289098622184 337.385685075825
C 50.65569715754654 33.94906611496373 338.7285866920029
C 50.50402267336646 30.702015404516345 336.79144934158904
C 50.25725091744813 33.06394530456434 333.81797338051547
C 47.507384799070245 33.96999394423877 331.3677195054455
C 49.026426585460094 32.228265837428154 328.3517710155387
C 47.90746392238054 31.393958228904324 324.8289506504935
C 46.99972587245436 27.714377193435052 324.36264344757024
C 46.71559543179655 27.22212508256648 328.1460238267639
C 43.363425243273554 25.43119577585207 328.12120074136277
C 41.58611582026839 23.39344995318904 330.8120075723663
C 43.168000299202305 20.148066125965386 329.5082242046679
C 41.009199598554595 17.488584076379983 331.1311539226469
C 43.33128675435973 14.467751999756196 330.8882842113711
C 41.99816365832524 10.93309307551099 330.5020243929418
C 45.512787321263666 9.53508032770714 329.94225474006123
C 49.063811554244985 10.757855214285286 330.5501667020446
C 51.861416049092036 11.173892136356269 329.5123533868022
C 51.415651060087455 9.349209634504323 326.2002739602649
C 48.64572606986188 11.814399624434357 325.39877974787913
C 50.86451820121513 14.719216674648205 326.4424699708953
C 53.79305872514461 13.303280942690499 324.45587206697337
C 51.927271807751076 11.869900539301367 321.46140360326126
C 49.41664795062882 14.714088036728304 321.0799434706925
C 52.28254913177812 17.199178168042234 321.34130061947803
C 54.33812958456357 15.682202133751252 318.51509877366055
C 51.15985186790669 15.013602483898168 316.52886546514355
C 49.82127105641306 18.561742741870937 316.8441280155132
C 53.227627632486424 20.132708061454867 316.1983027448934
C 53.75029461562667 17.99789181637819 313.0829803531062
C 50.27439972332425 18.878683073952242 311.8096116837382
C 51.00407814761088 22.570880359326686 312.3124426546763
C 54.389749019529155 22.60084152163451 310.5827287507772
C 52.91692551697017 20.621738729637 307.6791980845699
C 50.32273457117613 23.370410724678145 307.2066034156774
C 52.88371665715755 26.184917962321204 307.28109248186763
C 54.93836682912777 24.458655464588976 304.58606446880646
C 52.02683718092926 23.441874108464745 302.363171044589
C 50.5207153420435 26.93879621921502 302.51090301767687
C 54.014065855154655 28.3213138882416 301.9434964301209
C 54.09110813614741 26.03663350519831 298.89697212321994
C 50.88977312942519 27.60731953846201 297.544289566464
C 52.32843612292252 31.0831826809862 298.1253405732435
C 55.4179333112051 30.026854932396816 296.1569554499147
C 53.9078533614552 28.738763490345796 292.9027478662333
C 51.7203167410737 31.84986101204892 292.6238148058843
C 54.44774611601588 34.45556668946919 293.12427760887095
C 56.812972161961966 32.25543343164893 291.0949750756951
C 54.75530022366849 32.125527094542534 287.8876862580723
C 53.525726715738315 35.19499875892794 286.01532148898855
C 50.64202299302419 33.37784183664003 284.31206122688536
C 48.93537389266435 33.28922911657218 287.74186414894945
C 49.92008651884832 36.511030029004075 289.53672249942673
C 48.21715052896498 38.38877015662316 286.6810238770263
C 44.94709011439017 36.4680977821297 287.1516852412821
C 42.39233922739787 38.0449871006196 289.5359518578633
C 41.2740038688323 34.55549191628408 290.59490549208203
C 44.69931981707838 33.78687746455678 292.0977955130677
C 44.66930402906032 37.00875934476659 294.0876155577994
C 41.84511833357484 35.14320458233093 295.8594699308801
C 43.70845489637767 31.865242142579486 296.44952943583183
C 46.92414567835913 33.62219897532166 297.441020025744
C 44.937427150165426 35.753070607851406 299.8832968260697
C 43.40047814020262 32.63082718506294 301.4339760105127
C 46.720063005359115 30.78191841091053 301.5434142961021
C 48.52483384523878 33.66399191071003 303.2592811497289
C 45.589812049520646 33.85532872100267 305.67699129636947
C 45.86043108788911 30.112343296310357 306.3237130962035
C 49.61654169830533 30.582647913506733 306.73034450266124
C 49.315678829629334 33.53277118706373 309.13476976054994
C 47.28371668799022 31.309821444308334 311.44966140268525
C 49.276736019313944 28.104680542109268 311.02445964828115
C 52.46114920796557 30.067745140157612 311.7690542394696
C 50.959545635411324 31.499254506585086 314.9636853211941
C 49.852434025478004 27.990422331147446 315.91507016058426
C 53.31063864817585 26.429802500089245 315.6335560890242
C 54.944540161506985 29.481433188953982 317.21941988081403
C 52.63971691925415 29.579768556613452 320.2485742538587
C 52.74059039258574 25.782098388863933 320.53897988057855
C 56.54394757899574 25.58255116358094 320.65683813558655
C 56.724057928462855 28.773354791877765 322.74972613716216
C 54.543235496465854 27.32644291058455 325.54093982528514
C 54.475733543149 23.518479187736908 325.33359709445637
C 58.27872842417121 23.331581255859515 324.9056279757497
C 59.75330477059429 26.437046586616308 326.55275140371606
C 56.845897847876984 27.127960716101104 328.9517654778735
C 57.418971517732814 30.86436024338534 328.5391494987207
C 54.88891971300595 33.37419667746953 329.84760037369546
C 52.69803500032356 35.730425876405604 327.8372409250917
C 52.173426334084596 39.342349794438164 328.85999426212067
C 48.99797910917615 41.19527211221694 327.86720830444006
C 50.25784801908521 42.4632441118099 324.5051432593403
C 52.13237324569715 39.30367742999909 323.4901116044144
C 48.95917486985663 37.3217629702372 324.2045973717686
C 46.58707624847722 39.546111226399326 322.22204268355586
C 49.024859235286165 39.687507071389824 319.30027948317377
C 48.92949273310595 35.891238172175434 319.0307783789633
C 45.14240474617844 35.810036268004175 319.39045639026443
C 44.73107474375236 38.770439561637225 317.0469486632624
C 46.82285100256879 37.006017441774404 314.42402296631974
C 44.48401431561899 34.01351544884503 314.5320067404145
C 41.5232579217176 36.39799139236334 314.565173521322
C 42.98883712099965 38.210641503712026 311.54900996314217
C 43.53799347130817 34.91257356680784 309.71919595941324
C 39.83686270880609 34.05033945872249 309.88563945610866
C 38.7451507634826 37.63023939087801 309.2083746794891
C 40.729742318882025 37.81972252085618 305.9682170449114
C 39.42081408341677 34.35845867777339 305.05965654330475
C 35.82213880185946 35.56653002978326 305.34990169672375
C 36.82977491360044 38.86038792849567 303.7418932960459
C 38.27390414684822 36.93120835816532 300.79687500226686
C 35.09247599077825 34.88683821469043 300.3323071014023
C 33.23249576422193 38.206152049338456 300.37019886521335
C 35.339463230201915 39.67916969019329 297.5572716346116
C 34.90091235007144 36.46238744149282 295.5827805458835
C 31.11969070285527 36.81855113050983 295.8350505916499
C 31.437082563591783 40.33395248947248 294.39200672325245
C 33.53535272021361 39.06211602167013 291.4837640030131
C 30.88870733549373 36.44532245498614 290.7187496379518
C 28.128956759808574 39.04704809329522 291.00261741554795
C 29.92778210836685 41.12523649835262 288.3597350943554
C 30.372479343846077 38.043853544613825 286.1646220970985
C 26.640766717457176 37.31306708373237 286.424478617724
C 25.313612258039313 40.85128057245997 285.9393299497094
C 27.983050769093122 42.115321484775365 283.487111467311
C 29.103577617024122 39.01759394240941 281.56163545182517
C 30.111020719286937 41.033819286208164 278.49450579655115
C 32.3991064138999 43.579195847094674 280.18163181191824
C 33.44495359500713 41.440946427283976 283.17121830204405
C 37.024707094632326 41.00250728739653 281.9357817818448
C 37.601694958885666 44.765582815805935 281.7384946753464
C 35.887113434406444 45.54421996817968 285.0704885873934
C 37.666165555785675 43.06816398755788 287.370839131053
C 41.340615822740546 43.63580497179431 286.54429603323655
C 44.657451096318795 42.949156936104416 288.24562381507866
C 44.994622205572924 46.503273433596135 289.65151913822933
C 41.35266165540158 46.44791745326284 290.76503393168906
C 41.743264418288454 43.102794003399396 292.53686471852825
C 44.921872655710004 44.14793235160393 294.36459371224817
C 43.25359881595854 47.2808324755054 295.7402182593702
C 40.19787775937454 45.34083393268937 296.91924581930823
C 42.29291965601837 42.72418017403897 298.7176531702071
C 44.74554988436568 45.224437096412935 300.21266866959445
C 41.82052533530895 47.21617225297592 301.61138478883555
C 40.13711932851489 44.068682887340195 302.8880837694564
C 43.231810385394375 42.93342835818502 304.7873599333764
C 43.710102828702766 46.317311882070875 306.4553856381777
C 40.08699827668602 46.11757349674791 307.59303004958497
C 40.73784086742038 42.54237987602007 308.72785265019166
C 43.96830070388178 43.47528432130471 310.5244856048086
C 42.340649785718995 46.47730402886694 312.19858930036884
C 39.857681575923436 44.25916889268752 314.0336302394438
C 42.61185949146459 42.0778274095078 315.4829886503924
C 44.57335014083997 45.121903711772774 316.6284993101575
C 41.47592059420065 46.810595346675704 318.1464016840299
C 41.44919258085689 44.34926778900839 321.0733140434597
C 45.22969699915025 44.53129730320323 321.2816019676722
C 44.98981278813871 48.307535232390904 321.21975721009915
C 41.94661697620239 49.33379581198651 323.2794040367046
C 39.110625959821576 46.881831670938624 323.977257399985
C 40.16277130022186 44.89909163264746 327.05741811481914
C 39.33863454579863 43.525405249052774 330.4618967106143
C 42.338365837233226 45.306752076194044 331.97170828811477
C 42.02574401452105 48.637860978843435 330.17408888124874
C 38.216509973041155 48.86967940020486 330.3319462944324
C 37.568494359143976 46.94224087967392 333.57989161477
C 34.82629556051653 45.24199200615498 331.564970909512
C 33.338297763781696 41.76683934607793 331.8556104481974
C 35.930693738094995 39.20918275173034 330.82869222184456
C 35.42249466939745 36.28618400039736 328.4581787921484
C 35.205845363200275 32.852656040449844 330.06900948119306
C 37.286461294600635 31.413255260079715 327.1965061348984
C 40.00455632920448 33.91907913200538 326.32882496463577
C 42.016482471738534 35.95850424927363 328.8519259868194
C 42.14392982457049 39.752407496935916 328.4950115899013
C 39.250453926286525 39.699839681601325 325.9788633907485
C 36.270910948716285 42.035583509064814 326.291848270923
C 32.850928677378164 40.41966748400389 326.0016556115031
C 31.35969756170531 43.32517518758227 324.05651575204104
C 34.217326178342105 43.177455578701526 321.55664141900877
C 33.248703875841024 39.59439256813981 320.7082019721401
C 29.648329888692437 40.615575355232636 320.0374661159328
C 30.985754104209224 43.113809548446476 317.4979895772592
C 33.39382106166169 40.527007407677175 316.073666114109
C 30.85440403012857 37.68490984854302 316.01767111570786
C 28.14134593567844 39.872044354180844 314.5210203580858
C 30.424966611842848 41.15892600189806 311.76070571057124
C 31.53318189512598 37.716628073729424 310.5783368801288
C 28.074904603264404 36.198766570918444 311.1079241351332
C 26.459262669817562 38.81793446411993 308.8556989823687
C 29.189839951813923 38.41009870242134 306.24417880092153
C 28.90285866605326 34.61276832745103 306.31215838534126
C 25.10131907667296 34.74311486117346 306.1205019947533
C 25.44762141102301 36.8552857586727 302.9784609246806
C 28.22055038218642 34.67754202187393 301.5225894490813
C 26.08784631483213 31.56359126328563 302.0072257030152
C 23.17023521231202 33.20481400154963 300.19990134937433
C 25.44556997168252 34.60953916583296 297.494533243442
C 27.275999148320263 31.345733806163633 296.802240038347
C 23.930253661107713 29.57547190982229 296.3586186494183
C 22.738446228671577 32.26490871371848 293.93656796038954
C 26.082574899969906 32.148593658257504 292.10058223424284
C 25.886249739810783 28.36906794208055 291.7063997303673
C 22.21678619582135 28.561783237083137 290.6777718193076
C 22.9719646349052 31.20489295695095 288.0478954738812
C 25.879157560487727 29.06856396389911 286.83516644549195
C 23.454348581189073 26.2360611700118 286.03957260536237
C 20.866942538014918 28.471524389532153 284.34615235478014
C 22.814999933706076 28.615745152515235 281.07438122725557
C 24.425493087962977 25.174907062979955 281.17160653284077
C 25.1798155491876 22.33148177604251 283.48744003721913
C 28.599472852310477 20.80721961167532 282.9089383500687
C 27.82242945456955 17.083436402744343 283.16044411825095
C 28.948223455029947 14.519404446243328 280.6025637618151
C 27.512735934866573 11.01189931658649 280.3482598684588
C 29.44167624556963 8.125814210452512 278.8104978254786
C 27.71299440884105 4.802571201774972 278.1106499022444
C 29.89412887686605 2.0458075155037143 276.6791782308503
C 29.370759428402106 -1.5223874823349026 275.56784912672634
C 32.50819556173829 -3.6704053260403167 275.6263462462986
C 33.29014456443913 -7.375750920348029 276.0321274018035
C 37.09573482386202 -7.472946605639251 275.8085996107096
C 37.5540501150389 -3.965922350426288 277.226191192994
C 38.77567401800845 -2.0428231206637886 274.1728373664529
C 35.766206215423935 0.2711213418758252 274.1957227641687
C 35.9383428416808 0.4723991776766711 278.0032676150083
C 39.56045225982823 1.6159464291299965 277.7839703958897
C 38.540540298273804 4.071245274322383 275.05693491849206
C 35.757696454499666 5.511929076580057 277.2149330761002
C 37.99222653009609 5.742928057637261 280.2952870090071
C 40.56046017845234 7.646076450832823 278.2207983359132
C 37.91275825920593 10.089274830245976 276.9778803929238
C 36.63118894313875 10.319552468757827 280.5559934854074
C 39.859301258073266 11.761703797190403 281.9761959194238
C 40.348289358750755 14.324254438897235 279.18738576545695
C 36.86029577886268 15.70654536235155 279.84046215338657
C 37.38709329194013 15.493575490995287 283.60788726838814
C 40.442728441776886 17.736936205054356 283.2813934774837
C 38.590181956044056 20.13077455083738 280.96573428933385
C 35.912304624779956 20.945589363913584 283.5509023814294
C 33.135729933158856 18.39929296997658 282.9855893732216
C 31.46751967337559 16.436837283482916 285.7744103021923
C 31.97382360662148 13.10576115777165 284.0169650680908
C 29.67678272298259 10.134298249226648 284.70295660535663
C 30.844837510983346 6.890457572892702 283.0742803293795
C 28.519261403808542 3.878714302740283 283.06668418892247
C 28.476465614188335 0.43353032587701634 281.4904551161336
C 25.533664000877355 -0.10211870043685314 279.138258571476
C 24.551776817667097 -3.2772350866466167 281.0126906475354
C 23.733365753885785 -1.2490612812189397 284.15229673022907
C 21.510719913733162 1.549378106727584 282.7819308849627
C 17.821471304645353 1.9781966299662967 282.0206429021904
C 17.01415264727391 3.808792628167411 278.79485994152657
C 14.070719258056672 5.828765546099641 280.11926768153637
C 15.214087127131583 9.38524984584057 280.78057671618643
C 18.85162252679045 8.278271007069693 280.79407588053
C 20.259393618154068 11.437382350825937 279.1975558744082
C 18.3676343669748 13.833727080291133 281.4773287377437
C 20.552739183517428 16.167623355137994 283.5127673846118
C 23.483995765971628 15.816015421393866 281.10056999515103
C 24.249186267051975 18.26208139572771 278.29932666706196
C 26.92373505295417 16.035150260285324 276.75542506776424
C 26.361572016119258 12.32646136117384 276.0959731018548
C 28.938512080223962 9.998921980422963 274.54109854723174
C 27.770057892297043 6.5615843186339715 273.4419005601264
C 30.445031500893172 3.957667255657109 272.73232477962785
C 29.8826147942711 0.49438133372964904 271.32352974437487
C 31.938106044221986 -2.2094900615110995 269.62777543243294
C 30.791279012314643 -4.095304262949343 266.53144163928846
C 30.237915604933818 -7.867385979345752 266.5490557330014
C 28.968617161323337 -8.747119212738916 263.08948919734485
C 29.828253113668318 -12.448394667100615 262.82423700717044
C 28.340573967081443 -12.570884971191497 259.33291578878095
C 26.00674855747323 -9.56312862401053 259.699121908405
C 26.29410223715167 -6.3206023418758015 261.6934950478619
C 25.587983191126508 -6.42192959499795 265.42021653842653
C 26.07193284180142 -4.1310287240084795 268.39425237999
C 27.859364594351696 -5.313039820323443 271.5086430996593
C 25.244992633477665 -7.27534069303366 273.3974831534144
C 25.101282531006795 -5.0817394163030585 276.4993802796505
C 24.25008155258246 -2.0714321999337635 274.3173454200526
C 21.317333136985965 -3.545267709914238 272.37805202196574
C 18.655346406466933 -2.9405675043125115 275.0933607101936
C 19.645035148721007 0.7319124944900135 275.14100670524954
C 19.76512818522316 0.9103381126943616 271.35250690011446
C 16.295438455358205 -0.6102592294316598 271.0233225120609
C 14.7956321284833 1.969991551036003 273.41027844757605
C 17.009524808756385 4.905796870154704 272.46322114094164
C 14.025388662980438 7.183899531501183 271.78089150634503
C 13.244636485791041 7.114115790332281 275.5278283543446
C 16.611123843076722 8.569722080998721 276.56585612030125
C 15.871105091675599 12.232052018551059 275.8379091937674
C 18.283319875426834 12.572573507767133 272.9007698494737
C 16.309021480283928 15.159882253897534 270.91318628661014
C 18.03797225977366 18.523742302474236 271.0807256500285
C 20.859975953297713 17.14828715658173 273.2153982317661
C 24.557111418860135 17.173426357188013 272.31661368022293
C 25.875899637014214 13.665997872486301 271.5998128037426
C 28.775759963874155 11.911063667192744 269.90346533613064
C 29.68657743316418 8.287188457476859 269.30021026084444
C 32.81140439971371 6.158810879477589 269.5147431595243
C 33.551432826966035 2.477884491711927 269.11292116107427
C 36.20796211930694 -0.1839409467840839 268.6176560134764
C 36.26768216202582 -2.359918038556081 265.51996804258505
C 38.583554565932616 -3.9281020110791336 262.96378413545074
C 38.87666246219275 -3.0515874714327187 259.28713759658194
C 39.125053416395545 -6.663398704961636 258.06904174512584
C 35.35763806541887 -6.939008707046042 258.58147687035495
C 32.996770977801134 -5.710392800910779 255.90307928944858
C 31.41649561688551 -2.9749509961282845 258.0422652378578
C 34.205447069367146 -1.339850445059809 260.0326789437049
C 32.64835987500087 -0.035359754168741334 263.2578320298921
C 29.163994842703158 -0.5455855663782897 261.8476747132196
C 27.891421301203845 -0.12117257604513447 265.40723882146887
C 28.767948987473048 3.58112159182918 265.6085440994578
C 27.167215606337354 4.059571212546493 262.1855639718413
C 23.928605384744387 2.510529689687802 263.4367563751238
C 23.966914911369603 4.538634983768336 266.65926408251136
C 24.691478614846723 7.833841631292502 264.8895516084614
C 21.956560450347574 7.260492098688725 262.29615591038174
C 19.40849268174367 6.619333285130698 265.0416185709268
C 20.65634286383526 9.647079691628221 266.97719857497674
C 20.15698358718621 11.737667936944955 263.8353149361155
C 16.662964360662194 10.314651328585024 263.37706211236207
C 15.899239950617492 11.28851281294307 266.98963323704663
C 16.886221885004566 14.926730123355437 266.50885880323926
C 19.99786284069319 14.785631231861624 268.6650825239327
C 22.61476167909811 17.483358433657017 268.0667201543741
C 25.623806608531844 15.43057601405221 266.96906539781173
C 28.624392656675393 17.577336999795516 267.8582750523498
C 31.111251635063685 15.846733507480337 265.54317666979733
C 31.81872843346452 12.677442214799846 263.600314374567
C 32.21415969022978 9.410048838606873 265.4294051928295
C 35.48213900715269 7.977483834150835 266.6969463894221
C 36.241201293716536 4.67287749252992 264.9450155408296
C 39.19764814536462 2.7976685905704457 266.4393049397274
C 40.8812065502937 0.12416370390156602 264.3242328674818
C 42.667937909971926 -2.6747906122620972 266.1313247407468
C 44.095381076356844 -2.0461646825813506 269.57839212124395
C 42.93857057750082 1.2763590629582922 271.0793487184693
C 46.10940490782929 1.6016606076156252 273.1539300784125
C 48.08053438590092 1.8454070604909765 269.8851427149063
C 45.80098257712431 4.699875004709868 268.7085804160578
C 45.68224069167074 6.8095480032236155 271.8820969589097
C 46.59596636143882 10.078915703256444 270.1342671383063
C 43.34657376637146 9.907751645854223 268.1570325487224
C 41.18475379371064 9.08827400835792 271.1882442982871
C 42.60737412958541 12.067180765914209 273.07350995389805
C 42.385939472177135 14.228140772197847 269.95538937524435
C 38.7415976480655 13.272513688135833 269.4538227718692
C 37.928546517541285 13.947639062711744 273.1115523732545
C 39.51896861793195 17.37728559615459 272.69417287464415
C 37.213847662193025 18.19894625211984 269.78467081674273
C 34.13041591148974 16.910389076253892 271.6193878271588
C 35.18723796322688 18.998499837396327 274.6317209724425
C 34.066509370205786 22.190869744406932 272.89877215814005
C 30.41836900723463 21.109255029562583 272.8372397671788
C 29.8120716937005 23.39708880631852 275.8407144304891
C 31.656872532633766 26.755113352496572 275.734669388361
C 34.70982758302026 27.191514809265783 277.95377015785823
C 33.167472829429734 30.14397414300611 279.79163310689904
C 30.135602842129238 28.11776422453969 280.8746052811722
C 32.24086658907032 25.240572937777767 282.18497379890965
C 34.72221371602979 27.61771968867194 283.82250855056776
C 31.936788778296435 29.547255390948706 285.54319867397965
C 30.57092898229665 26.2550112095714 286.89614834832366
C 33.84353992052201 24.960230499756314 288.32799750907503
C 34.528115106936845 28.380594746641687 289.8311803349956
C 31.081283358588927 28.272291495168098 291.4262068984897
C 31.571998656960194 24.650947051796848 292.5113657605126
C 35.014081776905485 25.40132651694038 293.9552394445797
C 33.77106802100188 28.348858918143165 296.01490462103385
C 30.937950013199526 26.409569113591104 297.6479894972044
C 33.424181399302114 23.72791889313341 298.6843657591961
C 35.749665525218745 26.292445966985923 300.27785290405285
C 32.72558748008541 27.712337927646946 302.09528113160434
C 31.353476363911128 24.39794276261083 303.38135700932185
C 34.79556059046104 23.376696085512634 304.64364016677854
C 35.1258194622269 26.73693459643372 306.3885878232417
C 31.753238858310727 26.316386754803517 308.1085789465858
C 32.58653187729307 22.760655789501662 309.18347615238554
C 35.90783058686081 23.663829830746163 310.79780148852825
C 35.45364123684547 27.181893301821443 312.1629227593752
C 31.701194781989635 26.938217386151724 312.723587979102
C 31.845508664038825 24.93719488630438 315.9670861088395
C 34.36902470555645 27.33783093497968 317.5084428666957
C 32.0895495607661 30.248184154892158 316.596343835879
C 29.201938486808316 28.46822465994765 318.3171102776282
C 31.39194813466794 28.180611253358993 321.4187149816904
C 32.05415462431189 31.925737902242645 321.3160681498792
C 28.309303033216988 32.512103191750604 320.9776009417737
C 27.771930374417796 30.4384606158505 324.12422611072776
C 30.339794821478517 32.655870999752935 325.85818563012606
C 28.886773001662082 36.09351703459042 325.1076609835726
C 25.152735034831526 35.64215680331086 325.691210382754
C 25.172963279230796 33.23496718285009 328.62792157062006
C 27.797994157699343 31.403297950702157 330.65236592955
C 29.866605467210213 28.41063732526169 329.5592745152863
C 29.431940637492293 24.775188136238082 330.552211059093
C 32.038518670477 22.3420022342713 331.81127172526584
C 31.308099978624924 20.33596648419128 328.65861896464116
C 31.703939174984114 23.226017026730343 326.2089722225838
C 35.107947361124786 24.074727846745372 327.7106394703356
C 36.191710407680006 20.484410484849406 326.9256887583968
C 35.00175910852391 20.18884112305665 323.3155683336074
C 36.65697366901831 23.57311049703861 322.73555683464815
C 40.06683242722639 21.877125896862964 322.8736491594457
C 39.02723859475326 19.744228831445906 319.88560054921436
C 36.95554078436107 22.37362248587156 318.06904079759954
C 39.98134816372163 24.683292848604836 318.04482939309736
C 41.94614353787193 21.894053912730065 316.3490721363731
C 39.25020104684965 21.825846723893168 313.6652497777786
C 40.20266541635246 25.44707194695869 312.98759075885033
C 43.73961915825297 24.32705013845284 312.1095859592651
C 42.848121713499815 21.558375619631718 309.6629306414541
C 40.80329291051081 24.073641676263787 307.6759358727393
C 44.145239319031724 25.678403071849704 306.8225244585545
C 45.51821465690208 22.23350660677695 305.8873005449443
C 42.80012622267457 21.03580771582882 303.51001876839825
C 42.479690939153784 24.351963768082427 301.6589941188772
C 45.86841819494176 23.841315143799665 299.94209978021024
C 44.59328047920722 20.326645484735987 299.21139195529247
C 41.40527305539145 21.764984964784503 297.692635664767
C 43.37342745223273 24.17129029550621 295.5031885565345
C 45.43931259939131 21.279960841214084 294.14872199413713
C 42.46974791451573 19.098696749445185 293.19850584241374
C 40.39047279641829 21.747962515690244 291.3972972863266
C 42.815011962889834 24.350473177041778 290.01388999374194
C 44.163657708039786 22.555949699437548 286.95315191208044
C 46.43604296005768 25.509809913936802 286.1611339933495
C 48.08723637700116 25.38567267353348 289.58990599017125
C 49.080115286572514 21.754257865525023 289.03812403165256
C 50.89694829287326 22.697946320612065 285.83302442548194
C 52.62383509811472 25.677962632999932 287.457433287475
C 53.72697095453401 23.236891331042546 290.1677988289795
C 55.13538204135949 20.77209935126871 287.6274861099928
C 56.85009498784205 23.73637405972305 285.9366091536089
C 59.2008847894831 23.733477944194757 288.9352697470226
C 59.32653050745223 19.91685938105379 288.69487636168947
439
Mode 10 - Frame 3
C 49.21992510164022 36.13219008445903 337.3806485212874
C 50.66223922838903 33.961113916789564 338.72395146928
C 50.51427063863933 30.712705259147047 336.78853348039246
C 50.261813856093504 33.07237833144046 333.8139554073837
C 47.50978170723963 33.974442497708985 331.3644787760056
C 49.02973234360032 32.2328354173282 328.34899833942814
C 47.910341175209865 31.39572013516551 324.827148184183
C 47.004945350305334 27.714990216530666 324.3620396123002
C 46.72298247178241 27.224851509356085 328.14558930774587
C 43.36984627830138 25.43350854507961 328.11906447182247
C 41.59239912341073 23.399436862311592 330.8137914426313
C 43.17645780556137 20.155217558743942 329.5132203776936
C 41.02264219196311 17.49418556217099 331.1392346857229
C 43.364798763669214 14.485446604832875 330.9204597140209
C 42.04987099558963 10.941146754011521 330.5625722377965
C 45.5714491399942 9.557372328771828 330.00691124229166
C 49.11803291063865 10.800967882249322 330.59786927000795
C 51.91145523215613 11.217466364157644 329.54901093019953
C 51.46178872826202 9.37512019247698 326.24624377191714
C 48.68165925396227 11.826595879631295 325.43918807444214
C 50.89323685933953 14.742904741844056 326.46493541184674
C 53.82112773412319 13.32477199267233 324.47540061657475
C 51.948313666639834 11.878758764948136 321.4914066256946
C 49.43118036651942 14.716797973492753 321.105735552524
C 52.29392168660903 17.207269723347565 321.3534528051033
C 54.34530926434455 15.685407982846124 318.52671598778164
C 51.16245668004708 15.010754790157279 316.5497264508181
C 49.82183683527695 18.55851235554268 316.85798387043127
C 53.22657163262461 20.13079761272184 316.20511437774553
C 53.74419400772273 17.990276537785313 313.09231923076925
C 50.26745565166603 18.869639504194947 311.82101208200436
C 50.99788118440219 22.562369731106795 312.317981190145
C 54.3825153034066 22.5896428563664 310.5861690102252
C 52.90709961482989 20.607378434762616 307.68551800560164
C 50.31460417392375 23.356794676436 307.2104330102552
C 52.87646853573743 26.17063744837818 307.2824690225622
C 54.930072740731404 24.440697107135804 304.588763914902
C 52.01786220802533 23.42445819974983 302.3663630551236
C 50.51391176013741 26.9226810147674 302.51219522314165
C 54.008308545171595 28.302758361745546 301.94505277824294
C 54.08403427177509 26.016439748553296 298.8996304639951
C 50.884330644833916 27.589656776827844 297.5457538344206
C 52.3255143777683 31.064568750873182 298.1263824206839
C 55.41523287693746 30.00497923889615 296.15960636898643
C 53.905117339562814 28.71729221861498 292.90530638463883
C 51.720457730413735 31.830658774177024 292.62506774608346
C 54.450303855356026 34.43356269186302 293.12573655420516
C 56.81429514527006 32.23025424334007 291.0976347306905
C 54.75765948522029 32.1017249726323 287.889772228247
C 53.531391693860016 35.17229683639006 286.01679996645584
C 50.64648447683223 33.35818593841206 284.31297873030485
C 48.938656195928935 33.272416355711044 287.7422488031676
C 49.925466529390796 36.492793274596195 289.5370441019148
C 48.2252297814287 38.37175310125876 286.6805893803813
C 44.95291685030191 36.45478756026976 287.1502097596259
C 42.39827684971325 38.034298361087295 289.5332596791751
C 41.27623121546609 34.54680838239212 290.59263779973395
C 44.700797550336816 33.7743594236664 292.09636911612944
C 44.67255523429487 36.995743600911894 294.0861090582896
C 41.84561613170002 35.13305777422855 295.8570083593938
C 43.70643175756395 31.853776678767034 296.4479846012896
C 46.92332027361669 33.60759842235946 297.44013868989333
C 44.93672703553375 35.74019341494747 299.8816484511293
C 43.39712997308215 32.61917701332576 301.43218483257834
C 46.7156398015732 30.768083221549826 301.5427084598067
C 48.5216440112884 33.649744313036486 303.2580709217629
C 45.58572226394524 33.8434566704985 305.6752069225506
C 45.85483635209193 30.100477733638613 306.3231402632746
C 49.61099619795906 30.569582568823186 306.72960759956715
C 49.31063949475453 33.52198633903059 309.13244165071666
C 47.27824907991064 31.30039434173848 311.44862043477997
C 49.27083189118394 28.09474559555754 311.02510937408215
C 52.4558741252985 30.058729197614028 311.7664076333841
C 50.95533726228107 31.494026294955926 314.96042937549254
C 49.849511346699 27.985268822410504 315.91554651571164
C 53.30869730186367 26.42615358872814 315.6329133682897
C 54.94344522613384 29.481180887241518 317.21337503156457
C 52.64137141258046 29.582336284822436 320.2448237444161
C 52.74619468987723 25.785258058525795 320.539416049827
C 56.54971086885371 25.58947337377754 320.6532050864728
C 56.728534962904675 28.783750591371117 322.74292736043225
C 54.55179769498429 27.33776818371687 325.5377971656927
C 54.490304058401925 23.530710858541266 325.33475312587706
C 58.29418691064771 23.348309608767497 324.90190137925873
C 59.765013679080745 26.457097944161003 326.5455187488544
C 56.857870749831974 27.144412851308676 328.9467647122901
C 57.425190588222854 30.880990218136965 328.5312037960517
C 54.89199984959367 33.38630259591822 329.84208099122657
C 52.69760545493519 35.738627692872406 327.83156154309756
C 52.17050023167484 39.35051774492651 328.85286970958316
C 48.9930734362058 41.1993993602777 327.86017902746937
C 50.2515486199386 42.466468646384094 324.49719477936776
C 52.128088137611925 39.30798509509875 323.48259415895006
C 48.95658195936058 37.32388308690696 324.1995217779714
C 46.58221381462893 39.54482536132754 322.2167201842211
C 49.01945507855801 39.68595228187742 319.2941721394382
C 48.92659618655421 35.88956368892603 319.0262284808802
C 45.13946903445404 35.80604628765973 319.38754366660885
C 44.725766515209536 38.76484859771635 317.0429196878657
C 46.81788830615714 36.999348331982034 314.42047218996834
C 44.47956943881717 34.0061777645941 314.5302292411247
C 41.51847635515301 36.38997531261727 314.56258001055954
C 42.984313370459894 38.20202455490958 311.5458985236566
C 43.53353931618449 34.90303612778937 309.71705756130814
C 39.83235034803622 34.04114293726903 309.8832533445235
C 38.741656872831044 37.62144345163891 309.2049804594285
C 40.72784711898298 37.81025138499418 305.9651977826785
C 39.417615452987256 34.34931522368852 305.05683291275204
C 35.81952983659963 35.55919883587108 305.34629694025506
C 36.82922959713439 38.85299348176147 303.73872992513026
C 38.273861480223225 36.92328885530103 300.7937034883347
C 35.0909073665116 34.88186982607564 300.32843767574826
C 33.23316156612768 38.20265873105337 300.36717151074413
C 35.34323042473337 39.67479397448394 297.55472179651775
C 34.9022087096175 36.45944402702188 295.57912186215873
C 31.120888401705507 36.8196867022332 295.8315121120209
C 31.442460813551076 40.33571184096962 294.3902292163234
C 33.540406098709234 39.06350304051702 291.4814333303568
C 30.8903575628496 36.45080748657932 290.71507719633684
C 28.133388761562863 39.05508174909127 291.00022149316027
C 29.935697367647183 41.133354017931765 288.3587269284477
C 30.375808586057808 38.053135976658844 286.1617831336816
C 26.6433336270119 37.32600556658933 286.42113066316017
C 25.32100678780487 40.86653970898649 285.93814144383003
C 27.99242099066556 42.12970858258427 283.4871610841871
C 29.10784085288287 39.0316571929925 281.5592475578336
C 30.117706815518076 41.04887309273611 278.49339556448035
C 32.4107270288818 43.588630646498636 280.18191304713775
C 33.453390312165794 41.44670920448635 283.1699800990084
C 37.03258896343128 41.002287968746195 281.9339041478933
C 37.61580317441804 44.76450686692352 281.73782461785436
C 35.90274329852696 45.54431788149456 285.07070606981
C 37.67825762119784 43.06334060855946 287.3689870246623
C 41.35379856299585 43.62637053689823 286.54220218048243
C 44.66967026293336 42.93587304515178 288.2441209910895
C 45.01136878621816 46.489151148770254 289.65085996977575
C 41.368980671243975 46.43853308666964 290.76282341100875
C 41.75406511515057 43.09246443638951 292.53457887685596
C 44.93294409419602 44.13410336759303 294.36396773854756
C 43.267219110975674 47.268739533771864 295.7385349124353
C 40.20806121982068 45.331857513912965 296.9153491154679
C 42.299115641567745 42.713132251389894 298.7152731631086
C 44.752916650055745 45.211277911790745 300.2120760612754
C 41.82788117360249 47.206011054272494 301.6075499437928
C 40.140733443840915 44.05963923451723 302.8832246833833
C 43.23306135792335 42.922936033384175 304.78529452416586
C 43.710148600319215 46.30765796065897 306.4528865459103
C 40.08521700997991 46.108926276352086 307.58681167674706
C 40.734209034313864 42.53364647021635 308.723335812082
C 43.963538180723916 43.46695350662152 310.5215858852742
C 42.332926773252176 46.469427111414525 312.1935101137906
C 39.84997271406832 44.25078669785218 314.02812415096327
C 42.60422982424766 42.07062858671696 315.47897747426305
C 44.56415837426302 45.11651935263645 316.623380066695
C 41.465647375909036 46.80418347674706 318.1403487349387
C 41.44082093021566 44.34404548971663 321.0681123331761
C 45.22110475274942 44.52875889083883 321.2756381698181
C 44.97860133287604 48.30510272823333 321.2125271398033
C 41.93487323526633 49.330143923584316 323.2720167601354
C 39.10111184223831 46.876415244632916 323.9715853513762
C 40.15510237688647 44.89557142138859 327.05226272928945
C 39.332685249279855 43.52246976117026 330.45739948489614
C 42.331406682032 45.30664171913371 331.96579181613737
C 42.01583732112053 48.63690884725639 330.1670064460415
C 38.206499101949355 48.86597569401953 330.32569064009033
C 37.56070216243787 46.939232226887405 333.57450187095645
C 34.81930512339852 45.23620182414302 331.560951836475
C 33.3339790568161 41.76009096145577 331.85321142446844
C 35.92788666386971 39.20392260022835 330.8263295976025
C 35.42093435944938 36.280034154900086 328.45647787737016
C 35.206666780317704 32.84716143663967 330.06812345170016
C 37.287556878123546 31.408472508753814 327.1949509285304
C 40.0043588402842 33.9155533563994 326.32696655241995
C 42.015806982116786 35.95694820356702 328.8492222922853
C 42.14033758850689 39.75080838435427 328.49101062471874
C 39.24620473114091 39.69531707084915 325.9756867082403
C 36.26508468601971 42.029166369920766 326.28866485820396
C 32.846000555958575 40.411062099676364 325.99972181599037
C 31.352440940423847 43.3150152951452 324.05407457669463
C 34.20990424507674 43.16831074514259 321.55381105625526
C 33.243230564754754 39.58432943720256 320.7065113753534
C 29.642244981708508 40.603367962862364 320.0358930961265
C 30.978522651404393 43.102151526212076 317.4962044382216
C 33.3883999129026 40.51588258241789 316.0721821184717
C 30.84968750005639 37.67285134747544 316.0161893464068
C 28.136603546319723 39.859600600018354 314.51924892036067
C 30.42139075071032 41.148655190707224 311.75968446520943
C 31.53014698684823 37.706669772195156 310.5762612093436
C 28.071746265473383 36.18842479302811 311.1047744914634
C 26.457153966174722 38.810338169099005 308.8533393674043
C 29.188878460572383 38.404356013574706 306.2420327651444
C 28.900125005369567 34.60687858047744 306.3077776375607
C 25.098345231318145 34.73960498951 306.1149388213672
C 25.447007766736924 36.85496783207042 302.97465996959846
C 28.219014871388193 34.676447914596444 301.51795545360267
C 26.083771781600216 31.563409324394872 302.00020417058363
C 23.16766916174562 33.20873733314357 300.1931805639635
C 25.444933430464935 34.614230411012976 297.4894291045295
C 27.272882894888156 31.349176315890045 296.7956700118326
C 23.92591532294359 29.581913717293144 296.34999152760054
C 22.736419231646014 32.27466082780994 293.9296987752389
C 26.080605177743667 32.15731528350908 292.0941645276437
C 25.881464531275707 28.37800068287334 291.697675162228
C 22.212239777216496 28.574595372727586 290.6683226274141
C 22.969723268500594 31.21908930635314 288.040281823334
C 25.87522157044839 29.081278495588563 286.8267831613489
C 23.448717119604954 26.250777520140595 286.0291444885725
C 20.862910836118008 28.4891176796297 284.3368725487023
C 22.81054865515665 28.632101335002336 281.06520329801634
C 24.41859057523062 25.189554816230988 281.16074839311244
C 25.172166322168835 22.34594022348632 283.4760626612392
C 28.59167108237717 20.82156136323034 282.89733766064404
C 27.815053492125017 17.098319778307197 283.15040393355196
C 28.94209117177222 14.5338284722677 280.5939122081582
C 27.508167143859048 11.0256533719168 280.34258891862913
C 29.439306509889708 8.139530382923104 278.8076035456687
C 27.712991920076956 4.814843830319189 278.1113843148226
C 29.896411867688855 2.0581853331737596 276.68326368997674
C 29.375548717937065 -1.5114318377711642 275.5762393424516
C 32.514514359794774 -3.6572319996340625 275.637183366846
C 33.29911141175192 -7.361396051862725 276.0477634831603
C 37.10496441034378 -7.456453217030249 275.82355563420236
C 37.56119442095534 -3.947637665601802 277.2365141705499
C 38.7813155390582 -2.0271650156250036 274.18077722248347
C 35.769859006277 0.28452910128771025 274.2013859833483
C 35.942056448283346 0.4899367328590611 278.0087282359617
C 39.56376944626911 1.6355080791791712 277.78751821759516
C 38.54167104829915 4.08737894857686 275.0577961989002
C 35.75756133883796 5.527922003344824 277.21445816170166
C 37.99232736428337 5.762926654981531 280.29452451405575
C 40.55932964062967 7.6656959767799915 278.21714757097357
C 37.90953478002992 10.10586678548214 276.972040529083
C 36.62771204720298 10.337603382522042 280.5502039618475
C 39.85587435631194 11.781602570624786 281.96916112957393
C 40.342631535784456 14.342617817052389 279.1777647313802
C 36.85375056384002 15.723257738165247 279.83042999657556
C 37.380012820041465 15.510746402722672 283.5980443408514
C 40.43504044108029 17.752932304880563 283.27044050150994
C 38.583586075650175 20.147143819249806 280.9544878922982
C 35.90576334729538 20.96009570139818 283.5401759312757
C 33.128487721217546 18.414557624946486 282.97472359531946
C 31.460183869568432 16.453234475758162 285.7648001900275
C 31.96840359068737 13.123014714405043 284.00938239565954
C 29.672234758530717 10.152236003546442 284.6984860402798
C 30.843874933267333 6.90846624614406 283.07262461135156
C 28.519822886057767 3.8963921279363722 283.06876923806703
C 28.47978874498748 0.44979088367739406 281.4964443234114
C 25.537075438532415 -0.08970803964443361 279.14505054164
C 24.557018972501005 -3.263095732638509 281.0232359447461
C 23.737089559281376 -1.2317286877582705 284.1604410605164
C 21.51282086488069 1.5637904083775382 282.78679649408275
C 17.82346159369653 1.9898574023660873 282.0249351981025
C 17.01511084418513 3.8162674451689265 278.79702322253223
C 14.070149167922056 5.835783183294305 280.1189417083505
C 15.211010035259422 9.393818431623044 280.7763821778832
C 18.849228879544096 8.289074636762425 280.7914389074194
C 20.255117578356774 11.447345292589413 279.1915715592943
C 18.36168499085709 13.845178844436827 281.4685725690196
C 20.54550108914109 16.1821448229631 283.50198084401256
C 23.47731700773963 15.829376032961385 281.0905858413951
C 24.241702055787016 18.274135999402144 278.2878988272016
C 26.916940244865295 16.046345267481286 276.7458215281232
C 26.35693026079506 12.33645947241084 276.08928425525994
C 28.935179020652228 10.008679999854992 274.53669116401846
C 27.76919341179214 6.569411536778441 273.44096604715406
C 30.445935772533293 3.9664216409441133 272.73424984674466
C 29.886004328840272 0.5012279484299909 271.3295521705414
C 31.943494745994542 -2.2030313265336723 269.6370230948009
C 30.798080081204947 -4.093214073445296 266.54321147143924
C 30.24811591138089 -7.865777288748848 266.5664404124057
C 28.980019997799037 -8.751623526338236 263.10840219723553
C 29.843945152506866 -12.45257646739222 262.8497146244944
C 28.35640882576472 -12.582407016509062 259.3586955487042
C 26.019545256359645 -9.57609449997789 259.7196519184577
C 26.303495368438735 -6.3293278324221305 261.7084045278271
C 25.596878207159012 -6.42545925521045 265.435002046906
C 26.07857982157525 -4.130151259971927 268.4059379681138
C 27.866648882842068 -5.307270921588637 271.5218379815505
C 25.253446727631786 -7.269260595331081 273.4128324637688
C 25.10808516615461 -5.072275801025227 276.5120130489064
C 24.255014227612286 -2.064947709327278 274.3264016732011
C 21.32326804830733 -3.542716124839912 272.3887581759351
C 18.660842099460705 -2.936368865574807 275.10331401917273
C 19.648166668620316 0.7367699175526643 275.14679631367557
C 19.76830111798656 0.9109337399790275 271.35807403282774
C 16.299639746893764 -0.6121551185236908 271.03058806867557
C 14.798139129133943 1.9699877901917149 273.41440851566296
C 17.010203539107742 4.906151576905845 272.4642098260901
C 14.024671416744239 7.181629185950113 271.77906271350116
C 13.243584426755593 7.115502706204931 275.5259714509725
C 16.608953344194187 8.574494746274334 276.5626762015359
C 15.866700621557262 12.235636172535887 275.83074677518727
C 18.27901101090516 12.574609289973083 272.89354540527825
C 16.303244417940796 15.158494467462868 270.9030313346268
C 18.02994766363544 18.52362759488781 271.06724978290276
C 20.852843251047105 17.15286622616797 273.20400224713785
C 24.550039015705 17.179402763142868 272.3057587219723
C 25.87095858900541 13.671783549229426 271.5921623546579
C 28.771646993680356 11.916433505894226 269.89744072017464
C 29.6846088385258 8.292168718537548 269.29763310375847
C 32.810694158289394 6.165848695687762 269.51418370852815
C 33.553405988643895 2.484955074560845 269.11644706713724
C 36.2119513818034 -0.17545728755034945 268.6241797700686
C 36.27332730818053 -2.354985181531836 265.52930144052846
C 38.59047829060068 -3.9245864195186626 262.9752612962689
C 38.88274396436518 -3.0527392194059013 259.2974367170401
C 39.13442481634822 -6.666246927893632 258.08463969856217
C 35.367269707211946 -6.9443540816174965 258.59771363377115
C 33.005126407493506 -5.721695768979372 255.91780370498995
C 31.422502852056564 -2.9842768062693263 258.05306629953066
C 34.210097320116645 -1.3437899985677244 260.04099340672906
C 32.65208106355838 -0.035965014612613644 263.2644341357745
C 29.16799867119821 -0.5507425905006181 261.85509704334123
C 27.89516983209406 -0.122584768652769 265.4140220004128
C 28.76926165523899 3.58073059047644 265.6110119161969
C 27.16820182789565 4.0540388497239785 262.1875955093692
C 23.930655356186776 2.5045337191027617 263.4406540557605
C 23.967767286109233 4.5366920063371055 266.66071700692595
C 24.690356283522334 7.830655263108529 264.8875715186046
C 21.955919670946685 7.252698895797688 262.29488993526337
C 19.408266861753503 6.613249889986025 265.04100366244313
C 20.65426985654685 9.643999290028342 266.97328084150786
C 20.153860407105803 11.730843253848917 263.8292233733672
C 16.6607228721852 10.305148503270155 263.3721933861769
C 15.896230884284831 11.28250933009865 266.98368335796977
C 16.88097915269751 14.920823370787469 266.49900320515593
C 19.992460288821487 14.784131709267314 268.6557716344056
C 22.607533598064965 17.48307285650016 268.05502234061174
C 25.61793390142068 15.431277537155959 266.9597468850217
C 28.61700031457175 17.58149313093347 267.8477144873038
C 31.10468677053673 15.849730759351342 265.5339076869392
C 31.813711178492095 12.678529305428262 263.59377743695546
C 32.211114897999735 9.41274132731128 265.4255794301126
C 35.479975258178015 7.9834858245332505 266.69425177659457
C 36.241290894562795 4.677274210444407 264.94591270824793
C 39.19927202571994 2.805978445156586 266.4421114254185
C 40.88485949020564 0.1313585710496023 264.3301231463497
C 42.67414202081062 -2.664014410868515 266.1403717890213
C 44.10133732668607 -2.030658615258342 269.5865789124477
C 42.94194043008436 1.292543387368408 271.08351006588083
C 46.11270101671619 1.6228755310067848 273.1574599538048
C 48.08344300379799 1.8647286241264678 269.8883221151935
C 45.801419946672475 4.715843862738606 268.70839364879583
C 45.68145757971951 6.828932303979448 271.8794693683109
C 46.59239038884522 10.097128301741995 270.1277091746588
C 43.342823039936185 9.921439969264005 268.15126041321685
C 41.1819734517355 9.103085098135104 271.1834566675943
C 42.60264429003683 12.084621100581794 273.06572469880535
C 42.37923565617527 14.242892555242063 269.9457699479738
C 38.73563192744682 13.284315591022912 269.44573163494186
C 37.92255803745291 13.961722397465069 273.1028957502657
C 39.51094240071929 17.39210184394865 272.68312170285265
C 37.204877354760605 18.21049557510475 269.77339616647606
C 34.12258879577906 16.92169038638494 271.6093225858928
C 35.17888651340874 19.012076074590453 274.6204686477269
C 34.056498230776945 22.20327526171155 272.88665236764507
C 30.408740513655765 21.12049667217303 272.82577324601635
C 29.80364623317539 23.41003695843955 275.8294591937871
C 31.64924867036601 26.768072430732747 275.72472947699816
C 34.7021837125601 27.20465258590783 277.94342997660414
C 33.162341798735845 30.15598100582313 279.7834575453701
C 30.130084558421704 28.131458147035634 280.86597220881515
C 32.234130330982524 25.254181713772166 282.1751693882631
C 34.717412472412654 27.628723037719816 283.81472267081784
C 31.933133759023622 29.557161819709016 285.53661023515525
C 30.56555587169984 26.265699196927635 286.8877570086803
C 33.83754850393607 24.96879047411489 288.3199841520297
C 34.52371509486072 28.384420482415774 289.82591910774477
C 31.076513114609245 28.27731762087121 291.42006724550356
C 31.564430935771135 24.655819857177384 292.503516321353
C 35.00610592957006 25.400581607954063 293.94955940357283
C 33.76531167509136 28.347015619479038 296.01085604134437
C 30.9308057643652 26.409377315319695 297.6426433233001
C 33.41491452166432 23.72610229083106 298.6791870688748
C 35.74239464369928 26.28685785424528 300.27467155365525
C 32.71917210854152 27.70803709861801 302.0922903959545
C 31.346121281982757 24.39480141049522 303.3779549238297
C 34.78779787496357 23.37121930675719 304.6408092466262
C 35.11950735171148 26.72978348521299 306.38706897838966
C 31.747558556340913 26.309436910533755 308.1075012754171
C 32.58098200536965 22.75338057437206 309.18146247515034
C 35.90196855310103 23.654406461188646 310.79726800122444
C 35.44858516848635 27.172498184820217 312.1624432527455
C 31.696385110359692 26.927631152444807 312.7242948281473
C 31.843064333646083 24.925708387547 315.96845981274055
C 34.36591982828664 27.327072682231897 317.5090851225952
C 32.08534293490903 30.23713800421998 316.5969420106956
C 29.199685481234592 28.45586116437231 318.3198301143711
C 31.391479923212945 28.169755214850877 321.4208137374629
C 32.0519978269237 31.915383363210747 321.31654360999164
C 28.306767171424408 32.50013075255974 320.97920381063517
C 27.7718993823372 30.426647275027804 324.12699750766797
C 30.339258366504794 32.64602083064157 325.8591585085262
C 28.884001209624486 36.08261905696198 325.1079552038219
C 25.150391467716158 35.62931797815254 325.69308452897326
C 25.172946933901926 33.222934202710434 328.630557409174
C 27.799772056761963 31.393637828091087 330.654754438426
C 29.869990850072302 28.402018516526937 329.56206745830093
C 29.43814596241824 24.766814507186336 330.5572013806959
C 32.04676179189593 22.33621660504864 331.81673417579714
C 31.31704697968145 20.32793931719751 328.6655713547782
C 31.709253599103178 23.217122107671354 326.21385623210847
C 35.11326542909893 24.06882008080157 327.7135948639316
C 36.200929125911095 20.47791632831808 326.93133684076054
C 35.00788363038523 20.181203279603896 323.3216079368023
C 36.660077822770866 23.56648280846179 322.7380303201377
C 40.07120908545196 21.872730687651657 322.87616374100185
C 39.030015548644116 19.737653816460778 319.8894288678581
C 36.954001001331754 22.36410682194663 318.07128458214726
C 39.97927751554463 24.675410954539327 318.0447534517162
C 41.943091555825156 21.88517541254816 316.3495493709733
C 39.24494903896088 21.81643087389609 313.6662512098964
C 40.19717498599004 25.437756349357038 312.98740859542283
C 43.734108137258445 24.317724833342112 312.10984678432675
C 42.841499017649205 21.547859819587398 309.6642351429502
C 40.796301293809265 24.063244304652283 307.6759073280985
C 44.13866897233223 25.66700924166321 306.8227579081182
C 45.51029795776239 22.2208234878529 305.88832457479185
C 42.79127990944978 21.0245940027547 303.5104722475837
C 42.47154112020164 24.34081951775272 301.658991501043
C 45.86014697074842 23.827656550128165 299.94258931977083
C 44.581832079982505 20.314469308754166 299.2111212994504
C 41.39471160144952 21.75563064925091 297.6920283651774
C 43.364715223786106 24.160736515568715 295.5032724877438
C 45.42743337275642 21.26747991335028 294.14859824680406
C 42.45450145825154 19.091439766606516 293.1960602560454
C 40.38000025218176 21.744829956162217 291.39475886644993
C 42.8083404143095 24.344006926366564 290.01384102721687
C 44.156383346899275 22.551030935460126 286.9536646568347
C 46.43472670793712 25.49815205439125 286.1620838869344
C 48.08289034525076 25.369947600730256 289.5916446436714
C 49.07081898051231 21.737457901538768 289.03995974084614
C 50.89113865299098 22.678336930802118 285.83615117220046
C 52.62109094675464 25.656134879719893 287.46074202884904
C 53.71894577740112 23.2141415896775 290.1726056566927
C 55.125314224690165 20.746326330558627 287.6339342383132
C 56.845686020255776 23.70805256916313 285.9440023015152
C 59.19415663285229 23.70208682087209 288.94429231622075
C 59.313858027313984 19.884747794968323 288.7059494497992
439
Mode 10 - Frame 4
C 49.222284126430395 36.14016973113727 337.3763266048327
C 50.6678530430338 33.9714522527623 338.7199739395605
C 50.52306451735343 30.721878327418715 336.78603135152815
C 50.26572935814282 33.07961479385682 333.8105075455441
C 47.511838517461875 33.97825984472653 331.3616978745407
C 49.03256904682573 32.23675661830276 328.34661907907935
C 47.91281017385859 31.39723204407171 324.8256014703038
C 47.009424235035155 27.71551625761377 324.36152145537955
C 46.72932136267071 27.22719108271258 328.1452164427486
C 43.37535623093589 25.435493154857177 328.11723131814387
C 41.59779088697417 23.40457428728271 330.8153221990629
C 43.183715274060226 20.161354272795183 329.51750764238
C 41.03417741216436 17.49899225163112 331.14616886714487
C 43.393555744931966 14.500630517618964 330.94806982591473
C 42.094241564812336 10.948057693895702 330.61452893260116
C 45.62178741743062 9.576501311788222 330.062393615968
C 49.16456078413778 10.837963282118647 330.63880330772673
C 51.95439434202831 11.2548578330144 329.5804671248693
C 51.501379910245475 9.397354294384922 326.2856909145856
C 48.71249386887131 11.837061604886237 325.47386285264184
C 50.91788061931071 14.763231702791424 326.4842132253175
C 53.845214023841194 13.343213671771215 324.49215825500187
C 51.966369890491094 11.886360094566806 321.51715251117616
C 49.4436507739966 14.719123396598206 321.1278679889024
C 52.30368058656523 17.21421316568649 321.36388071383
C 54.35147021742341 15.68815895314758 318.5366848322553
C 51.16469189468976 15.008311156449954 316.56762746560435
C 49.82232233562512 18.555740329602507 316.869873714355
C 53.225665468868236 20.129158238075224 316.2109595061736
C 53.738959016721005 17.983741793127557 313.1003330125598
C 50.261496876209804 18.86187912899162 311.83079487468325
C 50.99256350997591 22.555066678222275 312.32273386132107
C 54.376307981217245 22.580033172736012 310.58912113033153
C 52.89866791259658 20.595055726004198 307.6909411913322
C 50.30762740093212 23.34511061295428 307.21371922262466
C 52.87024885222208 26.158383200413237 307.2836502455261
C 54.9229555027764 24.425286865869115 304.5910803358624
C 52.01016069644932 23.409513439023502 302.3691021504218
C 50.508073540304444 26.90885240102879 302.5133040772243
C 54.003368141456086 28.286835683912663 301.9463882957098
C 54.077964119927984 25.999111289489495 298.90191161208014
C 50.87966039585039 27.57450018920962 297.5470103370016
C 52.323007199822676 31.04859595632831 298.12727644010977
C 55.412915608016974 29.986207493451143 296.16188114843555
C 53.90276953255526 28.698867511425735 292.9075018741772
C 51.72057871473826 31.814181147019983 292.62614290625953
C 54.452498676370794 34.414680847416676 293.12698848939203
C 56.81543041011946 32.20864773685691 291.0999170065207
C 54.75968399051368 32.08130014022475 287.89156221955056
C 53.536252866706896 35.15281609576896 286.0180686623562
C 50.65031291949847 33.34131902088932 284.31376604891653
C 48.941472772297324 33.25798916202673 287.742578878695
C 49.93008316878519 36.47714413819385 289.5373200721389
C 48.23216266657953 38.357150600473396 286.68021653458254
C 44.95791682908233 36.44336592938231 287.1489436344602
C 42.40337198119557 38.02512624969241 289.5309494944477
C 41.278142523284785 34.53935695746802 290.5906918708652
C 44.70206560762433 33.76361757097691 292.0951451110378
C 44.67534512514109 36.98457466446605 294.0848163164019
C 41.846043297114846 35.12435069946671 295.85489606095007
C 43.70469568246261 31.84393805270977 296.4466589637375
C 46.92261198577595 33.595069545798154 297.4393824070244
C 44.93612626035614 35.72914337042058 299.8802339645542
C 43.394256878298165 32.609179887601066 301.4306478053646
C 46.711844207366404 30.756211110942008 301.5421027748138
C 48.51890678373826 33.63751831084266 303.2570324133697
C 45.58221277914908 33.83326914844495 305.6736757340146
C 45.850035454867175 30.090295778857204 306.3226487097646
C 49.6062375501538 30.558371069423487 306.728975255852
C 49.30631519246536 33.51273175599599 309.13044387701603
C 47.273557272217325 31.292304853296898 311.4477271700917
C 49.26576550138799 28.086220321253755 311.02566691011396
C 52.451347525534956 30.0509925295916 311.7641365549505
C 50.95172601635023 31.48953991568607 314.95763541680543
C 49.84700336760086 27.98084654641932 315.9159552806814
C 53.30703141370373 26.423022422385007 315.63236184337364
C 54.94250565143635 29.480964384687137 317.20818788760675
C 52.64279114940211 29.584539677382743 320.2416053957707
C 52.75100379191328 25.787969401806453 320.53979033090314
C 56.55465640395806 25.59541338970085 320.6500875316784
C 56.73237674972107 28.79267132806824 322.7370932639677
C 54.55914500084377 27.347486510787448 325.53510041891815
C 54.50280715931263 23.541206974273525 325.33574512768735
C 58.307451988305395 23.362664371165927 324.8987035505498
C 59.77506120738149 26.47430420917127 326.5393123373434
C 56.86814481349676 27.15853058861076 328.9424735066851
C 57.43052723312237 30.895260561282196 328.52438551127926
C 54.894642944769544 33.39669080233051 329.83734475542605
C 52.697236857857924 35.745665751386845 327.8266880101476
C 52.16798931472585 39.35752674271532 328.8467560617283
C 48.98886383049739 41.202940991997075 327.85414713650545
C 50.24614304423729 42.469235650877174 324.490374111364
C 52.12441104466958 39.311681544434656 323.4761433658518
C 48.9543569576347 37.32570237965017 324.1951663615481
C 46.578041312831886 39.54372194799789 322.2121528957537
C 49.01481771908674 39.68461810186861 319.2889313683538
C 48.92411063177455 35.88812679855687 319.02232416906435
C 45.13694987165863 35.802622446703374 319.38504423009897
C 44.72121147264749 38.76005093717537 317.0394623848756
C 46.8136297680789 36.99362550397828 314.41742523423187
C 44.47575524678456 33.99988122634219 314.5287039516889
C 41.51437324635894 36.383096636590125 314.5603544937392
C 42.98043149610531 38.194630267298656 311.54322856715953
C 43.52971716233361 34.89485195856765 309.7152225810873
C 39.828478247354006 34.033251312726996 309.8812057989552
C 38.73865873126713 37.61389557059271 309.2020678461684
C 40.72622082950917 37.802124111156154 305.9626069243788
C 39.414870677092786 34.34146913677182 305.0544099279006
C 35.81729105812474 35.55290786704198 305.3432036636547
C 36.828761655768915 38.84664823507036 303.7360154057677
C 38.273824867577176 36.91649305283585 300.7909819813704
C 35.08956131476556 34.87760640346252 300.3251172839447
C 33.2337328972213 38.19966108064269 300.3645737084177
C 35.346463091015885 39.67103913025772 297.5525337556394
C 34.903321128357646 36.456918254424735 295.5759823100552
C 31.121916158742593 36.82066114737821 295.8284757082216
C 31.447075942171903 40.33722155760793 294.3887039203323
C 33.54474245196606 39.064693254885334 291.47943335747283
C 30.891773639000508 36.455514245559186 290.7119258384539
C 28.13719190539192 39.061975507297916 290.9981655288469
C 29.942489528651684 41.14031974046669 288.3578618114728
C 30.378665441193462 38.06110132191541 286.15934699155014
C 26.64553631707702 37.33710820462125 286.41825775077314
C 25.327352105746 40.87963372251239 285.9371215753707
C 28.00046166896981 42.142054291201596 283.4872036609113
C 29.111499177054856 39.043725005154286 281.5571984827651
C 30.123444219750215 41.061790910592364 278.49244286353775
C 32.42069879166719 43.596726739668455 280.18215437781606
C 33.460629941249515 41.45165429967595 283.1689175849357
C 37.03935247173882 41.00209976927836 281.93229293192996
C 37.627909571440334 44.763583584718454 281.73724963500075
C 35.91615543700848 45.54440190186275 285.0708926935878
C 37.68863394018468 43.059201620109086 287.3673977141473
C 41.36511080067795 43.61827475651617 286.5404054250607
C 44.68015564869869 42.92447400907211 288.2428314032018
C 45.02573919001529 46.477032678750305 289.650294330912
C 41.38298417752354 46.43048027038545 290.7609265417044
C 41.763333298219514 43.08360053443089 292.5326173738756
C 44.942444603286766 44.12223658185626 294.3634305844243
C 43.27890681865633 47.258362462805124 295.73709041605133
C 40.21679974631531 45.324154761619724 296.9120053159873
C 42.30443247705506 42.70365192146764 298.71323085585976
C 44.75923814337355 45.19998588742663 300.2115675383107
C 41.834193290015016 47.19729163079589 301.6042592259482
C 40.143834751367784 44.05187878803444 302.87905505434463
C 43.23413482962251 42.91393246738149 304.7835221764257
C 43.710187877388655 46.299373836762065 306.4507420505193
C 40.08368848768754 46.10150601239235 307.58147563050966
C 40.73109252298716 42.5261522497195 308.71945986935094
C 43.95945141326246 43.459804753482445 310.51909760772725
C 42.32629958110893 46.462667851905636 312.1891516143669
C 39.84335766470266 44.24359385490461 314.0233993228635
C 42.5976827325716 42.064451206835066 315.4755354449975
C 44.55627082992679 45.11189898167137 316.61898719406923
C 41.456831827333836 46.79868138877334 318.1351546404279
C 41.43363713534365 44.33956418388102 321.0636486949688
C 45.21373166250968 44.526580654490004 321.2705205768512
C 44.96898067402687 48.303015372747275 321.2063229461333
C 41.92479581690164 49.32701020261326 323.2656776662326
C 39.09294768536706 46.87176735651776 323.96671811127544
C 40.148521599153185 44.89255069385544 327.04783884280414
C 39.327580100050014 43.51995079045576 330.453540371749
C 42.32543496324074 45.30654702066646 331.9607148339659
C 42.007336291120694 48.636091813877236 330.16092893947757
C 38.19790867605898 48.86279750770457 330.3203226022314
C 37.55401560262572 46.93665047265689 333.5698768793475
C 34.8133065612901 45.23123321261968 331.55750303079606
C 33.330273132347585 41.75430010694921 331.851152798864
C 35.92547788616396 39.19940881304284 330.8243022067519
C 35.419595442301016 36.274756912640434 328.4550183058489
C 35.207371646338615 32.842446463647256 330.06736314117114
C 37.28849700900466 31.404368383304543 327.19361639081365
C 40.00418937312013 33.912527854045855 326.325371830815
C 42.015227337899795 35.95561294560575 328.8469022256984
C 42.13725505578799 39.749436170288476 328.48757735756584
C 39.242558455441475 39.69143617455738 325.9729607660706
C 36.26008511330982 42.02365976038203 326.2859331407749
C 32.84177168701744 40.4036777356539 325.9980624072449
C 31.346213963094772 43.306296992588464 324.05197978037705
C 34.20353541192578 43.16046347448577 321.55138229443685
C 33.23853386325591 39.57569416663032 320.70506065780114
C 29.637023463819016 40.59289268069062 320.0345432725251
C 30.972317271390004 43.09214766389933 317.49467259304384
C 33.38374797240425 40.506336261617534 316.07090868737595
C 30.845640199709276 37.66250383037925 316.0149178257518
C 28.132534055867215 39.84892249349289 314.5177288324125
C 30.418322269479106 41.13984170768863 311.7588081246277
C 31.527542702525217 37.698124456753604 310.5744800560464
C 28.06903606508405 36.179550412794164 311.1020717515841
C 26.455344467060964 38.80381971442905 308.85131455884414
C 29.18805339558264 38.399428156398635 306.240191230963
C 28.897779224538176 34.60182453129175 306.30401847526525
C 25.09579334568345 34.73659313448427 306.1101650081546
C 25.446481192604228 36.85469501615956 302.9713983330589
C 28.2176972346316 34.67550905049589 301.5139789769933
C 26.080275384988408 31.563253200862434 301.9941789252841
C 23.16546720878674 33.21210398215863 300.1874133926088
C 25.444387208252532 34.618256014148095 297.48504919326507
C 27.27020880749669 31.35213036698215 296.79003220815383
C 23.922192552752612 29.587441494963134 296.3425885104262
C 22.734679845775553 32.28302921180061 293.9238042606234
C 26.07891493993579 32.16479939499949 292.0886574311663
C 25.877358297271332 28.385665954663846 291.690188525417
C 22.208338451174686 28.585589590987098 290.660214183909
C 22.967799930180146 31.231271331906665 288.0337484757181
C 25.871844059098166 29.092188958944597 286.8195893836558
C 23.44388470762509 26.263405763377264 286.0201960200888
C 20.859451193491516 28.504214653046393 284.3289094568137
C 22.806728969722126 28.646136734341358 281.05732762763427
C 24.412667461893033 25.202124195819398 281.15143091776105
C 25.165602446036498 22.3583471579196 283.4662996242081
C 28.58497630768561 20.83386815978599 282.88738299617324
C 27.808724106982712 17.111091347694003 283.14178835337003
C 28.9368289998412 14.546205869346034 280.586488225785
C 27.504246619840824 11.037455860623696 280.33772262140155
C 29.437273016645065 8.151300363979471 278.8051199360023
C 27.71298978444427 4.825375092286547 278.1120145214018
C 29.898370924327573 2.068806858953489 276.686769462205
C 29.379658453887146 -1.502030692571804 275.5834390682028
C 32.519936581889404 -3.6459278400674346 275.64648280543355
C 33.306805950679106 -7.349077999541574 276.0611809567127
C 37.11288440830833 -7.442300079782996 275.83638954348464
C 37.567325019376845 -3.9319473996426018 277.245372418034
C 38.786156583163404 -2.0137286433367247 274.1875904901987
C 35.77299350164994 0.29603443009751995 274.20624564682987
C 35.945243130242645 0.5049858796027533 278.01341404793396
C 39.56661595623051 1.6522941214226414 277.79056263792125
C 38.54264135589818 4.101223411436446 275.0585352719987
C 35.75744539477396 5.5416456894140085 277.21405063303536
C 37.9924138910806 5.7800876459504495 280.2938702097189
C 40.55835951512382 7.682531682894666 278.2140148140567
C 37.906768681184296 10.120104503711222 276.96702928509893
C 36.62472848897004 10.353093047259815 280.5452359153483
C 39.852933698566545 11.79867790172534 281.9631245079548
C 40.337776502846054 14.358375610524327 279.1695088284256
C 36.84813405114366 15.737598790463608 279.8218213052025
C 37.37393699821172 15.525480929150156 283.5895980289598
C 40.42844329287773 17.76665871378464 283.2610416462536
C 38.5779260865058 20.161190447748673 280.94483724957365
C 35.90015021343875 20.97254373074143 283.53097146002966
C 33.12227310868346 18.427656373902362 282.96539956557683
C 31.453888944943607 16.467305065995422 285.7565536592718
C 31.963752622277163 13.137820159230516 284.0028756306663
C 29.66833210598254 10.167628565063906 284.69464980488846
C 30.843048935963267 6.923919663886745 283.0712038236015
C 28.52030469943909 3.911561641743657 283.0705584390257
C 28.48264035586053 0.46374422654230446 281.5015837204519
C 25.540002826377755 -0.07905833086182909 279.1508787973241
C 24.561517316570527 -3.2509626153872118 281.0322849668891
C 23.74028499292423 -1.2168554206622793 284.1674297895809
C 21.51462371150279 1.5761577446561037 282.7909717206114
C 17.825169480096996 1.9998636246225088 282.02861845898906
C 17.015933082277975 3.8226816583684387 278.79887955501204
C 14.069659968030521 5.8418050860531645 280.118661987588
C 15.208369552783594 9.401171218455946 280.7727828037521
C 18.84717486755164 8.298345336521859 280.78917609513525
C 20.25144826700054 11.455894589856797 279.18643636026724
C 18.356579773322622 13.855005714676743 281.4610588154393
C 20.539290009929573 16.194605835798754 283.4927248085706
C 23.47158590031595 15.840840903747191 281.08201834191067
C 24.235279781278635 18.28448017210734 278.2780924866238
C 26.911109553930253 16.055951812084373 276.7375806373141
C 26.352947125386752 12.34503894894566 276.083544490914
C 28.93231888980281 10.017053451275855 274.532909145599
C 27.768451592659424 6.5761281488276095 273.44016413247965
C 30.446711736826305 3.973933864139695 272.7359017655686
C 29.888912921434493 0.5071030951224116 271.3347200730335
C 31.948118843418033 -2.1974890232055824 269.6449586038593
C 30.803916144594613 -4.091420461494177 266.5533112789292
C 30.256868893592845 -7.86439685569497 266.5813583749567
C 28.989804882729263 -8.75548872166511 263.12463162646657
C 29.8574106437189 -12.456164910911664 262.87157721581923
C 28.369996872075163 -12.592294195706403 259.38081741153326
C 26.03052622818689 -9.587220644304395 259.73726891984245
C 26.311555705792014 -6.336815260759591 261.7211984976555
C 25.604511106965653 -6.428488090982646 265.4476896355963
C 26.084283659594767 -4.129398299544373 268.4159654849844
C 27.87289960167231 -5.302320573452499 271.5331606380885
C 25.260701268084382 -7.264043204332707 273.4260038563338
C 25.11392257356508 -5.064154980673657 276.52285335112265
C 24.259247004050668 -2.0593833048432884 274.33417293214575
C 21.32836085345931 -3.5405265848605247 272.3979452308278
C 18.66555800709215 -2.9327659728209228 275.1118550504541
C 19.65085385631583 0.7409381195458036 275.15176443299924
C 19.771023842463702 0.9114448535474959 271.36285124357755
C 16.3032449160393 -0.6137819994007009 271.03682271350107
C 14.800290410785557 1.9699845629746378 273.41795256727414
C 17.010785964226336 4.906455954220322 272.465058226436
C 14.024055940770097 7.179680980342113 271.7774934085675
C 13.242681644660664 7.1166928322100445 275.5243780241212
C 16.607090817983973 8.578590216785717 276.5599474823025
C 15.862921102892905 12.238711769944347 275.8246006341128
C 18.27531353233354 12.576356214492316 272.88734603941975
C 16.298287064532918 15.15730359442002 270.8943172715215
C 18.02306167960933 18.523529163191785 271.055686010201
C 20.846722609844146 17.156795570334598 273.1942232418446
C 24.54397011774258 17.184531175243592 272.296443976678
C 25.866718627632302 13.676748294737756 271.5855974298589
C 28.768117613937562 11.921041416732889 269.89227093860285
C 29.682919568312034 8.296442329012025 269.295421620187
C 32.810084693212495 6.171887914256173 269.51370363818484
C 33.55509917787868 2.4910224105007845 269.11947268143723
C 36.21537460676742 -0.1681773770152625 268.62977786907703
C 36.278171463023554 -2.3507522489222743 265.5373105201184
C 38.596419606106686 -3.9215696561936615 262.98510995964057
C 38.8879625605528 -3.0537275455482806 259.3062744925164
C 39.14246650583202 -6.668691015704995 258.0980244541752
C 35.37553471275116 -6.948940999548144 258.6116465584435
C 33.01229628301147 -5.731394955857731 255.9304388692356
C 31.42765771900768 -2.9922793746921634 258.06233479564725
C 34.21408774553207 -1.3471705677650079 260.0481281283504
C 32.65527425166701 -0.03648439448872847 263.2700994670711
C 29.171434395387358 -0.5551678830782067 261.86146621703847
C 27.89838648292443 -0.12379658487011665 265.4198427122654
C 28.770388068221294 3.5803950684111827 265.61312957375276
C 27.16904811421083 4.0492914753556875 262.1893387914889
C 23.932414456627864 2.4993885184025104 263.4439986934396
C 23.96849871716698 4.535024718498055 266.6619637755032
C 24.68939320009251 7.827921009566269 264.8858723842321
C 21.95536981190795 7.24601147256846 262.2938035896962
C 19.4080730834227 6.608029669420506 265.0404760034902
C 20.652490988822155 9.641355967442951 266.9699189962984
C 20.151180375890036 11.724986926879547 263.8239961441015
C 16.658799429113245 10.29699403640429 263.3680154848643
C 15.89364877518634 11.27735768305553 266.9785777088411
C 16.87648031309266 14.915754728935765 266.49054602054497
C 19.987824306493156 14.782844954338671 268.64778186950673
C 22.60133111140067 17.48282779996318 268.04498433280173
C 25.612894474306728 15.431879520957155 266.9517505785267
C 28.610656873884587 17.585059547502407 267.83865236368274
C 31.099053396409545 15.852302730345329 265.52595388256077
C 31.809405823181997 12.679462148473974 263.5881680271861
C 32.20850213216109 9.415051778066644 265.4222965059002
C 35.47811852412941 7.988636190880203 266.69193950310853
C 36.241367781920786 4.6810470768672126 264.94668257633913
C 39.200665493253325 2.8131092122324404 266.44451969809734
C 40.88799411348745 0.13753255655591123 264.3351776519591
C 42.67946582868776 -2.654767247599461 266.14813514917404
C 44.10644844304833 -2.017352708013309 269.5936040776377
C 42.94483213337521 1.3064313136193784 271.08708095858486
C 46.11552943982342 1.6410802631914816 273.1604889742249
C 48.08593891711653 1.881308645882298 269.8910503895157
C 45.801795257737396 4.729546895191213 268.708233381991
C 45.68078558373443 6.845566161068679 271.8772146072514
C 46.58932181196818 10.112756709712352 270.1220817222433
C 43.33960450508724 9.933186052770319 268.1463072875763
C 41.179587613233714 9.115794638385882 271.17934835511284
C 42.5985855686985 12.099586821455768 273.0590440956592
C 42.373483046435446 14.255551203808222 269.9375154238353
C 38.730512684537025 13.294442918723686 269.43878855161717
C 37.91741926442073 13.973807444048765 273.0954674178495
C 39.50405502563343 17.404815810343905 272.6736385848096
C 37.19717984667111 18.220406161533855 269.76372127937907
C 34.11587227162933 16.931388150570967 271.60068550442696
C 35.17172005305959 19.023725975824505 274.6108129184025
C 34.04790757462395 22.213920556817225 272.8762522574949
C 30.400478209629796 21.13014323507905 272.81593371263676
C 29.79641626351845 23.421147893761066 275.8198009656588
C 31.642706559973313 26.779192741859983 275.71619994234163
C 34.69562443294282 27.21592623987589 277.9345569664593
C 33.15793881137212 30.16628421163406 279.77644201647325
C 30.12534926547897 28.143209035172262 280.85856408542514
C 32.2283498823731 25.26585953686734 282.1667561280896
C 34.71329247854835 27.638165118601183 283.80804153164723
C 31.92999735142202 29.565662622618504 285.53095663169404
C 30.56094515321596 26.274870662872914 286.88055631848397
C 33.83240721106675 24.976135871401155 288.31310781237846
C 34.519939401685754 28.387703383508207 289.82140439744876
C 31.07241972183546 28.28163058824162 291.4147987495369
C 31.557937000584324 24.660001258887178 292.4967806412346
C 34.99926177736596 25.399942394304887 293.9446853051176
C 33.76037209865588 28.34543386695992 296.00738191571986
C 30.924675214926406 26.409212731356785 297.63805571945414
C 33.40696252379594 23.724543446719743 298.674743184321
C 35.73615542952122 26.28206264032979 300.2719416059243
C 32.71366701579768 27.704346515380905 302.08972401659327
C 31.33980981461454 24.392105785679234 303.3750355611663
C 34.78113661326342 23.366519629617688 304.6383800064984
C 35.11409086826091 26.723647047093657 306.3857656428436
C 31.742684233950865 26.303473181543385 308.10657651530147
C 32.57621960627151 22.74713764148098 309.17973451912155
C 35.89693828489374 23.646320176081268 310.79681021057814
C 35.44424650703148 27.164436143506297 312.16203178344085
C 31.692257884335586 26.91854700229608 312.72490138219086
C 31.84096682995256 24.91585171119883 315.96963860142426
C 34.363255502890745 27.31784092087044 317.5096362486317
C 32.0817331883303 30.227659194848336 316.5974553103261
C 29.197752155229875 28.445251928521397 318.3221640327444
C 31.391078146407686 28.160439542577024 321.4226147002123
C 32.050147058099114 31.90649803251706 321.3169516069404
C 28.304591123746075 32.48985708599736 320.9805792480012
C 27.771872787731283 30.416510132323186 324.1293756703483
C 30.3387980292721 32.637568304684244 325.85999334494755
C 28.88162270790729 36.07326739632091 325.1082076770806
C 25.148380429971386 35.61830085736149 325.6946927520796
C 25.172932907816186 33.21260858537083 328.6328192478841
C 27.801297689246685 31.38534838288484 330.6568040411329
C 29.87289588004628 28.394622632890012 329.5644641098774
C 29.443470812115454 24.759629014621016 330.56148362421953
C 32.053835294591686 22.331251900318087 331.82142155774807
C 31.324724488343023 20.321051127095238 328.67153726840206
C 31.713813958149476 23.209489291078626 326.21804724820333
C 35.117828914972726 24.063750569362195 327.7161309159325
C 36.20883979772399 20.472343629409934 326.9361835151931
C 35.01313914218647 20.174649171820313 323.3267905790696
C 36.66274152730957 23.560795524406128 322.7401528421034
C 40.07496473846053 21.868959115861728 322.87832152790224
C 39.03239847979783 19.732011732126665 319.89271398533606
C 36.952679698532094 22.35594133814455 318.0732099954999
C 39.97750067219639 24.668647424550315 318.04468828567803
C 41.94047262033481 21.877556685153618 316.34995889062725
C 39.24044223988911 21.808351041396687 313.6671105485407
C 40.192463594273754 25.429762544413617 312.98725227921324
C 43.72937907652041 24.309722698290702 312.11007060085
C 42.8358160179005 21.538836109249868 309.6653545483768
C 40.79030171948873 24.05432221890527 307.6758828336645
C 44.133030893899445 25.657232085117386 306.8229582334603
C 45.503504561200565 22.20993998009651 305.88920330476793
C 42.783688801996306 21.014971406455558 303.5108613824852
C 42.46454768126048 24.331256528110433 301.658989254654
C 45.853049352788496 23.815935977999537 299.943009398431
C 44.572008097214024 20.30402081366909 299.2108890470388
C 41.385648715058245 21.74760362007337 297.6915072354904
C 43.357239175785445 24.151680214315302 295.5033445099312
C 45.41723969279528 21.256769907710016 294.1484920580135
C 42.441418325782124 19.08521247902168 293.19396167458706
C 40.371013660073785 21.742141876351184 291.3925806236548
C 42.802615493558065 24.338458173745078 290.0137990085653
C 44.15014114682455 22.546810096231173 286.95410464809737
C 46.43359721918525 25.488148331683394 286.16289899986214
C 48.07916097311855 25.35645376275171 289.59313659915705
C 49.06284172982831 21.723041688977293 289.04153498076676
C 50.88615334447978 22.66150992260542 285.8388342639831
C 52.61873616377177 25.63740427224467 287.46358129201633
C 53.71205929481783 23.19461981525552 290.17673044232424
C 55.11667493324563 20.72421025071394 287.6394674399657
C 56.84190264227042 23.683749622543505 285.95034643366944
C 59.18838313618194 23.675149792511004 288.95203467064
C 59.302983648803206 19.857192530500324 288.7154513744482
439
Mode 10 - Frame 5
C 49.224149980748315 36.146481177406116 337.3729082149487
C 50.6722932508428 33.97962928799109 338.7168279399793
C 50.53001997481124 30.72913370223061 336.78405231003404
C 50.268826297367866 33.08533842368143 333.80778048310384
C 47.51346533726059 33.98127914890906 331.35949833978907
C 49.03481271759333 32.23985806505327 328.3447372195865
C 47.91476301123819 31.39842787794878 324.8243781076745
C 47.012966777889055 27.71593232616481 324.3611116227522
C 46.73433506451226 27.22904155205376 328.14492152776165
C 43.37971428980728 25.437062868214273 328.11578139793914
C 41.60205546501843 23.40863769797906 330.8165329402596
C 43.18945551850029 20.166208064267845 329.52089862468785
C 41.04330111468344 17.502794069365905 331.15165340991075
C 43.4163008800755 14.512640128265213 330.96990785267474
C 42.129336159204726 10.953523853928225 330.6556237204771
C 45.6616021292991 9.591631248407465 330.1062770151267
C 49.20136168340496 10.867224537395346 330.6711798013294
C 51.98835673356245 11.28443235631332 329.6053471841609
C 51.53269428140557 9.414940203283717 326.3168913588471
C 48.73688229395657 11.845339397785418 325.5012886282828
C 50.93737243056403 14.779309171757335 326.4994608783538
C 53.86426490785911 13.357799990117536 324.50541259304345
C 51.98065133567918 11.892372313577814 321.53751604096806
C 49.45351415641396 14.72096267389634 321.1453734861548
C 52.31139932089021 17.219705033310465 321.37212859600805
C 54.35634318058708 15.690334814052823 318.54456962074215
C 51.16645982222909 15.006378381295061 316.58178614925754
C 49.82270633876267 18.553547814885665 316.87927790405104
C 53.224948744921704 20.12786158605367 316.21558267001734
C 53.734818436848535 17.97857318210364 313.1066714577593
C 50.25678382403636 18.855741113977064 311.83853250679175
C 50.9883575322215 22.549290379128117 312.32649295366826
C 54.37139834272681 22.57243246003037 310.5914560892817
C 52.89199891611762 20.585309164865407 307.6952306225219
C 50.30210917065926 23.33586918387349 307.21631842953616
C 52.865329436626475 26.148690787864844 307.2845845256475
C 54.917326172713686 24.41309824227881 304.5929124929762
C 52.004069239213074 23.397692984042425 302.37126861887543
C 50.50345584076619 26.897914754776615 302.51418111768044
C 53.99946056335719 28.274241752169736 301.9474446139998
C 54.07316297536964 25.985405464819166 298.90371587035753
C 50.8759664947655 27.56251219121562 297.54800415901485
C 52.32102416479265 31.035962385119166 298.1279835585822
C 55.41108278021496 29.971360111414576 296.1636803694845
C 53.9009125508648 28.68429461689379 292.90923838142044
C 51.720674406451735 31.801148281952987 292.6269932967537
C 54.45423465484992 34.3997463833376 293.1279786988565
C 56.816328339988644 32.191558220212286 291.10172215678034
C 54.761285258952675 32.065145260505325 287.89297800077367
C 53.54009777769905 35.13740793890874 286.0190721285909
C 50.65334099970748 33.32797824930402 284.31438877311905
C 48.94370052386679 33.24657807311259 287.742839949647
C 49.93373466773687 36.464766562150714 289.5375383488762
C 48.23764618406871 38.345600853621946 286.67992163478056
C 44.961871527666176 36.43433206954421 287.1479422015302
C 42.4074019401499 38.017871631715586 289.52912226983915
C 41.27965425896524 34.53346330453686 290.5891527519051
C 44.703068568752634 33.75512137699599 292.0941769926887
C 44.67755176998164 36.97574067154625 294.08379383116005
C 41.84638116064093 35.1174638989937 295.85322535312696
C 43.70332254588619 31.836156259577372 296.44561045989775
C 46.9220517704143 33.585159917663695 297.43878423032766
C 44.9356510813907 35.720403414240565 299.87911518619507
C 43.391984423879364 32.601272730254564 301.4294321043361
C 46.708842108418864 30.746820947289347 301.54162371246395
C 48.516741792566975 33.627848239091286 303.25621101234935
C 45.57943697645813 33.82521139844093 305.67246465104785
C 45.84623821846085 30.08224243224852 306.3222599189206
C 49.60247373063317 30.54950341163014 306.7284751079705
C 49.30289491552218 33.50541190764698 309.1288637517452
C 47.26984631942027 31.28590652844615 311.4470206485738
C 49.26175827547141 28.079477314593788 311.0261078893765
C 52.44776724280563 30.044873265607567 311.7623402611941
C 50.948869726394655 31.485991445077637 314.9554255545344
C 49.8450196989048 27.977348777855145 315.9162785905029
C 53.305713791002475 26.42054584805404 315.63192561856147
C 54.94176250133736 29.480793143491365 317.2040851520223
C 52.64391408040733 29.586282435466444 320.2390598652016
C 52.754807517858275 25.790113919994077 320.5400863659278
C 56.55856804069342 25.60011160415166 320.6476217233077
C 56.73541538439323 28.79972712296904 322.7324788257792
C 54.56495630152195 27.355173154269583 325.5329674457359
C 54.51269640037478 23.54950880431024 325.3365297446481
C 58.3179439095977 23.374018171056193 324.89617425008225
C 59.78300823029642 26.487913385301333 326.53440341914774
C 56.87627101298876 27.16969691514284 328.93907940733504
C 57.434748215441175 30.906547590348882 328.5189926361656
C 54.89673348259141 33.40490728223803 329.8335986625253
C 52.69694531855276 35.751232455019476 327.82283332301756
C 52.16600332235699 39.36307046096831 328.84192051430387
C 48.9855342720203 41.20574222107427 327.84937625412766
C 50.24186754157825 42.47142419391521 324.48497935125005
C 52.12150267347634 39.314605225433304 323.4710411557324
C 48.95259710793117 37.32714133664401 324.191721475096
C 46.574741101436494 39.54284921086763 322.2085404305759
C 49.011149831733775 39.683562841431886 319.284786216765
C 48.922144699437865 35.88699030007206 319.0192360806769
C 45.13495735729468 35.7999143834143 319.38306731810394
C 44.7176086932837 38.75625626080165 317.0367278550227
C 46.81026150688283 36.98909907280808 314.415015265697
C 44.4727384380155 33.99490102302503 314.52749753457465
C 41.51112792087861 36.37765599543185 314.55859423662537
C 42.97736115447249 38.188781806729594 311.54111678356173
C 43.52669405621954 34.88837874660966 309.71377121619173
C 39.825415636139645 34.027009486957084 309.87958630697034
C 38.73628737196389 37.60792562635989 309.19976413488473
C 40.724934527114414 37.795695900207825 305.96055770295237
C 39.41269971561084 34.33526332867125 305.0524934848153
C 35.815520311797 35.547932068821225 305.3407570579534
C 36.8283915407871 38.8416295061506 303.73386837548014
C 38.27379590905838 36.91111795994738 300.7888294242876
C 35.08849666446051 34.87423427887742 300.32249104304645
C 33.234184787592454 38.1972901098137 300.36251899466134
C 35.34901994602087 39.66806926222505 297.5508031398621
C 34.904200988254956 36.45492051208387 295.57349910306516
C 31.12272905605228 36.821431878016135 295.8260740856683
C 31.450726246187696 40.3384156575259 294.3874974980332
C 33.54817226053865 39.065634646695884 291.47785149277314
C 30.892893674623565 36.45923702397278 290.70943329376445
C 28.140199975660902 39.0674280776016 290.996539378114
C 29.947861741352053 41.14582923045735 288.35717755319376
C 30.3809250509749 38.06740145657385 286.15742014180535
C 26.64727851952702 37.345889759269795 286.4159854406199
C 25.33237089102047 40.88999034181456 285.9363149174769
C 28.00682138778051 42.15181904391949 283.48723733667634
C 29.114392703219174 39.05326995759553 281.55557778103264
C 30.12798217988729 41.07200816915005 278.49168933132614
C 32.42858588837253 43.60313028848325 280.18234525664445
C 33.46635607572774 41.455565588463784 283.1680771967894
C 37.04470202178699 41.00195091421284 281.93101855182397
C 37.637485042309734 44.762853321053505 281.7367948562954
C 35.92676367504079 45.54446835719101 285.0710403023722
C 37.69684101781539 43.055927915863116 287.36614066000385
C 41.374058136717984 43.61187145509869 286.5389842938053
C 44.68844899194238 42.91545802044071 288.2418114125945
C 45.03710536136151 46.46744765882704 289.64984694277064
C 41.39406015381958 46.42411095112359 290.7594262260669
C 41.77066390342149 43.07658969257286 292.5310659366797
C 44.949958965146486 44.11285062987346 294.36300572609116
C 43.28815113009103 47.250154790401126 295.7359479016418
C 40.223711423318534 45.31806232304677 296.90936056094904
C 42.308637791256494 42.69615352018147 298.7116155070874
C 44.764238084727225 45.19105453897043 300.2111653255941
C 41.83918581477041 47.190395063192454 301.6016564554623
C 40.14628770907484 44.04574071664189 302.8757571151376
C 43.234983884627525 42.90681115921519 304.7821203502569
C 43.71021894331467 46.292821566346085 306.4490458767437
C 40.082479513567755 46.09563700601011 307.5772551216985
C 40.728627539939936 42.520224747926505 308.71639421929467
C 43.95621901284595 43.45415049670318 310.51712952183664
C 42.321057849386705 46.457321662415325 312.185704289437
C 39.83812553722626 44.23790472559671 314.01966225280466
C 42.592504355759075 42.059565251005324 315.4728129957912
C 44.5500322313674 45.10824453125969 316.6155126818933
C 41.44985923024949 46.79432955040093 318.1310464073517
C 41.42795516254845 44.33601972607027 321.0601182112462
C 45.20789996785453 44.52485779353753 321.2664728521413
C 44.96137128054795 48.301364393383714 321.20141578212355
C 41.91682515264768 49.32453160771703 323.26066380381815
C 39.08649030203907 46.86809114160684 323.9628684014309
C 40.14331657858704 44.89016147033627 327.0443398004308
C 39.32354221762767 43.51795842801686 330.45048803293554
C 42.320711673626114 45.30647211956971 331.95669923008325
C 42.00061246032501 48.635445586985206 330.1561219777569
C 38.19111413820287 48.86028374325257 330.31607678986876
C 37.54872691445699 46.934608452030886 333.56621877426954
C 34.8085620401397 45.22730332375055 331.5547752218326
C 33.32734195705844 41.74971987068781 331.8495245432013
C 35.92357268012208 39.195838664333365 330.82269865600136
C 35.418536435056566 36.27058291442817 328.45386386786396
C 35.20792915523558 32.83871718841734 330.0667617788245
C 37.289240599013226 31.401122253707815 327.19256084745035
C 40.004055334240526 33.910134853915565 326.3241104968075
C 42.01476887232129 35.95455683256999 328.8450671851015
C 42.13481694788525 39.74835082707783 328.4848618386919
C 39.23967445893307 39.68836660651657 325.97080470099286
C 36.25613073590465 42.019304345709095 326.28377250779573
C 32.83842689241987 40.39783712407839 325.9967499093916
C 31.34128877850772 43.29940131156885 324.05032291573934
C 34.198498027458974 43.154256730114156 321.54946128209946
C 33.23481903973727 39.56886415918371 320.70391322280165
C 29.63289354041135 40.58460732881429 320.0334756388972
C 30.96740916904941 43.084235178295174 317.4934609907109
C 33.38006855228891 40.49878566530342 316.06990147587123
C 30.842439015533493 37.65431953340447 316.013912125297
C 28.129315320581274 39.84047671909886 314.51652652937884
C 30.415895275503225 41.13287074434198 311.7581149891146
C 31.525482861878597 37.69136559869454 310.5730712651832
C 28.066892450858404 36.172531283216834 311.09993403819715
C 26.453913256270493 38.798663987858156 308.84971305053836
C 29.187400816143843 38.39553050189819 306.2387346822576
C 28.89592384543772 34.59782706609537 306.30104519188563
C 25.09377494941641 34.7342109286134 306.10638919366
C 25.446064702441305 36.854479234304534 302.9688185642298
C 28.21665505896563 34.67476646243863 301.5108338103624
C 26.07750993430621 31.563129716035846 301.98941329924844
C 23.16372558934582 33.21476680987789 300.1828518883723
C 25.443955177577063 34.62144003706434 297.4815849327881
C 27.268093756596574 31.354466853232108 296.7855730263845
C 23.919248053455956 29.591813652422868 296.3367331452694
C 22.733304090569227 32.289648127154116 293.91914203511686
C 26.07757805804914 32.17071890114388 292.0843016313526
C 25.874110499927546 28.39172874829277 291.68426702188776
C 22.20525272436459 28.594285391767617 290.653800866682
C 22.966278679057655 31.240906620639 288.02858096967475
C 25.86917263989016 29.100818514364345 286.8138995150174
C 23.440062544841492 26.273393984895336 286.0131182909235
C 20.856714813119428 28.516155499600607 284.322611104441
C 22.803707815984872 28.657237936231866 281.0510984206967
C 24.407982616425322 25.212065859542598 281.14406132516973
C 25.160410793674547 22.36816033677253 283.45857761769236
C 28.579681122014918 20.84360213527822 282.8795094232613
C 27.803717923645113 17.121192932037776 283.13497391990126
C 28.93266692140098 14.555995685832663 280.5806162783494
C 27.501145708524255 11.04679095731606 280.333873657316
C 29.435664639248277 8.160609748970815 278.8031555421395
C 27.712988095280394 4.83370472099447 278.1125129789305
C 29.89992042660649 2.077207881198593 276.689542328466
C 29.382909021070635 -1.4945949218937344 275.58913364141654
C 32.524225250897935 -3.636986893356871 275.65383813197155
C 33.31289189294707 -7.339335121379584 276.07179341448244
C 37.11914867584024 -7.4311057539094865 275.846540435137
C 37.572173973734536 -3.9195372924613534 277.25237878752455
C 38.789985573466744 -2.003101237742818 274.1929793971057
C 35.77547270905397 0.3051344902275727 274.210089364
C 35.947763614265696 0.5168888979812305 278.01712025845706
C 39.56886738356801 1.6655709252659998 277.7929706010908
C 38.54340881397277 4.112173593441075 275.0591198367468
C 35.757353689619634 5.552500343852833 277.21372830105946
C 37.992482328851544 5.793661012891106 280.2933526922357
C 40.55759220107458 7.695847768032955 278.2115369816725
C 37.90458085446184 10.131365728326454 276.96306567638027
C 36.62236866425142 10.365344490294445 280.5413064733811
C 39.85060780569139 11.812183516586437 281.95834988389794
C 40.333936448171976 14.370839128124043 279.1629788791684
C 36.84369170932945 15.748941746445192 279.8150123203893
C 37.369131369019875 15.537135100768758 283.5829174770728
C 40.4232253242023 17.777515521830868 283.25360768679013
C 38.57344935729616 20.172300531265385 280.93720414055616
C 35.89571054409443 20.98238941332876 283.5236912472527
C 33.11735770394535 18.438016738660064 282.9580247888351
C 31.44891001791362 16.478434101883142 285.75003112289045
C 31.96007397102821 13.149530423264787 283.99772914996424
C 29.665245329981417 10.179803204979024 284.6916155610775
C 30.842395619116918 6.936142437611679 283.0700800613717
C 28.520685786395752 3.9235598636173563 283.071973595131
C 28.484895817728784 0.47478052643298335 281.50564869094285
C 25.542318223517373 -0.07063501746581195 279.1554886157878
C 24.565075250654374 -3.2413660103377633 281.0394422282748
C 23.74281239903076 -1.2050915130729147 284.1729574764268
C 21.51604966055106 1.5859396036228437 282.7942740871144
C 17.826520321015714 2.0077779768077733 282.031531708675
C 17.01658342580225 3.8277549358703187 278.800347808329
C 14.069273038764774 5.846568068329362 280.11844074438835
C 15.206281081458734 9.406986854272093 280.7699359037142
C 18.845550260993395 8.305677932282753 280.7873863394326
C 20.248546050598943 11.462656597313424 279.1823747101659
C 18.352541836875204 13.86277820962684 281.45511586408924
C 20.534377399848484 16.20446178758947 283.48540381145
C 23.467052920595908 15.849908963883392 281.0752419375365
C 24.230200127740343 18.29266182385924 278.2703362294677
C 26.90649780932167 16.063550041998113 276.7310625618095
C 26.34979669202488 12.351824826484828 276.0790046640612
C 28.930056689118267 10.023676374678178 274.52991778432636
C 27.76786485595464 6.5814406066050495 273.43952986362245
C 30.447325480409123 3.9798756050425617 272.7372083393204
C 29.891213452600425 0.5117500017043708 271.33880758971395
C 31.95177624124617 -2.1931053767771895 269.65123513978347
C 30.80853213850897 -4.090001816544956 266.56129965170663
C 30.26379200424555 -7.863305011732623 266.59315763410666
C 28.997544169689473 -8.758545871136489 263.13746818110315
C 29.86806108072386 -12.459003165457888 262.88886928099555
C 28.380744243186324 -12.600114391608642 259.39831454571004
C 26.039211551793557 -9.596020791093812 259.7512029650629
C 26.317930973791377 -6.342737390341169 261.73131779947346
C 25.610548296198164 -6.430883727657327 265.45772479598986
C 26.08879507076847 -4.128802750709606 268.42389667999726
C 27.877843564435263 -5.29840512988298 271.5421162148504
C 25.266439196606537 -7.259916545060987 273.436421678051
C 25.118539630523383 -5.057731874065732 276.5314274130749
C 24.26259488925613 -2.0549821776587214 274.34031955558015
C 21.332388972418773 -3.5387947833797546 272.4052116682608
C 18.669288021568345 -2.929916289752802 275.11861051998636
C 19.652979268810697 0.7442349300410788 275.15569393256646
C 19.77317736252985 0.9118491152842298 271.3666297453306
C 16.30609639960363 -0.6150687695617243 271.0417539626413
C 14.801991952106974 1.9699820104296442 273.42075571034803
C 17.011246629339702 4.906696699348927 272.4657292628131
C 14.023569134311467 7.17814006061078 271.7762521777001
C 13.241967595415831 7.117634154130339 275.52311771419005
C 16.60561766577886 8.581829500819275 276.55778922072545
C 15.859931718784301 12.241144392411334 275.81973938640147
C 18.272389037268038 12.57773793234067 272.8824426939341
C 16.29436608019224 15.156361681635401 270.88742494366664
C 18.017615258239893 18.523451309323605 271.0465397242794
C 20.841881531079505 17.15990345788645 273.1864886053425
C 24.539169964935642 17.188587457272533 272.2890765434064
C 25.863365059552482 13.680675125809085 271.5804049480613
C 28.76532607547637 11.92468601189387 269.8881819356773
C 29.681583451737247 8.299822511615499 269.29367246257414
C 32.8096026410314 6.176664592351997 269.51332392987206
C 33.55643839417599 2.4958213278368637 269.1218657701108
C 36.21808218284163 -0.16241938220209282 268.6342056467123
C 36.28200291374344 -2.347404240194299 265.5436452461449
C 38.60111884845344 -3.91918356813747 262.9928996917173
C 38.89209017306061 -3.0545092552649193 259.31326466981426
C 39.14882702442818 -6.6706241500303305 258.10861103391727
C 35.38207186163455 -6.952568990513941 258.6226667087062
C 33.01796724639001 -5.739066460537408 255.9404325648778
C 31.4317349253173 -2.9986089507561338 258.0696656484521
C 34.21724394487457 -1.3498444055559673 260.0537712869979
C 32.65779988168381 -0.03689519440423845 263.274580421619
C 29.1741518576371 -0.5586680375905051 261.86650387085797
C 27.900930670618465 -0.12475506251353995 265.4244465639879
C 28.77127899676751 3.5801296895576726 265.6148045203285
C 27.16971747850999 4.045536572481943 262.19071762840656
C 23.93380580493727 2.4953189575470605 263.4466441114451
C 23.96907723749582 4.533705988730286 266.6629498984736
C 24.688631455924526 7.8257583706659215 264.8845284656693
C 21.954934904709884 7.240722101485975 262.2929443521945
C 19.407919815794163 6.60390077212225 265.04005865529626
C 20.651084005716697 9.639265249753105 266.9672599681159
C 20.149060623763255 11.720354905627179 263.8198617033204
C 16.657278095138278 10.290544317318933 263.3647110027595
C 15.891606473879959 11.273283023509839 266.97453943102727
C 16.872921987068576 14.911745721771286 266.48385686895585
C 19.98415750838186 14.781827204440615 268.64146242030137
C 22.596425297535287 17.482633974192648 268.037044840053
C 25.608908574336716 15.43235565587505 266.9454259552912
C 28.605639573411143 17.587880379984696 267.83148473977377
C 31.094597718163413 15.854337012988175 265.5196628760799
C 31.806000532220672 12.68019997421961 263.5837313033828
C 32.20643558311843 9.41687921308818 265.4196998997337
C 35.4766499531944 7.992709837468131 266.6901106264107
C 36.24142859544403 4.6840311994314385 264.94729149817334
C 39.20176764674695 2.8187492430595773 266.4464245046917
C 40.89047342206012 0.1424158276277977 264.3391754781607
C 42.68367665765264 -2.647453267862606 266.15427552511363
C 44.11049104513273 -2.0068284928416866 269.5991605833847
C 42.94711930606362 1.3174158726923717 271.0899053314352
C 46.11776656148891 1.655479170017247 273.1628847569456
C 48.087913042467804 1.894422499247966 269.8932082991934
C 45.80209210742459 4.740385213795064 268.7081066200719
C 45.68025407316463 6.858722595118408 271.8754312196091
C 46.58689474234189 10.125117890745786 270.1176307277341
C 43.337058827241755 9.942476536159974 268.14238964715884
C 41.17770055079632 9.125847161214155 271.176098913812
C 42.59537535116883 12.111423854720444 273.0537601188742
C 42.368933059607386 14.265563474211051 269.93098656514314
C 38.72646365481614 13.30245305842132 269.433296967953
C 37.91335478748482 13.983366027936638 273.08959202977746
C 39.49860750401491 17.41487183400049 272.6661379782787
C 37.19109155596479 18.22824487122393 269.7560689944432
C 34.11055988337534 16.939058529981995 271.5938540646666
C 35.166051790885156 19.032940384512123 274.60317578617406
C 34.04111285464322 22.222340379246045 272.8680263624084
C 30.393943197489598 21.13777311719231 272.80815120186406
C 29.790697769096933 23.429936011093332 275.81216185701885
C 31.63753212307237 26.78798827492084 275.7094535659852
C 34.69043641616262 27.224843058394566 277.92753892054446
C 33.15445629901423 30.1744334609047 279.77089313248564
C 30.12160391832509 28.152503318750988 280.8527046815425
C 32.223777876583966 25.27509603015761 282.1601017182302
C 34.71003379793865 27.645633267073393 283.80275713089736
C 31.927516631553974 29.572386273798656 285.5264849531963
C 30.557298337367445 26.282124770335848 286.87486098244904
C 33.82834074108312 24.981945662506572 288.3076690191606
C 34.516953043321486 28.390299971388135 289.8178335186114
C 31.069182081174063 28.28504189990932 291.4106316691445
C 31.55280066752879 24.663308509606907 292.4914531016998
C 34.99384844258639 25.399436812696603 293.94083017070506
C 33.75646517488838 28.34418279076099 296.00463408012075
C 30.91982629931126 26.40908255481132 297.6344271859684
C 33.40067294616174 23.723310489767286 298.67122832461394
C 35.73122056628322 26.278269899097552 300.2697823726756
C 32.70931280082316 27.70142747413247 302.0876941566137
C 31.33481780321625 24.38997369990237 303.37272651148885
C 34.77586793446115 23.36280245253668 304.63645861584547
C 35.10980673819314 26.71879347386742 306.38473477862107
C 31.738828922418623 26.298756211406427 308.1058450826934
C 32.572452819691755 22.742199836952672 309.1783678042693
C 35.892959629097525 23.63992438488553 310.7964481242374
C 35.440814872805646 27.158059527771062 312.16170633464446
C 31.688993483499196 26.911361956657633 312.7253811319103
C 31.839307823934604 24.90805564131386 315.97057095616873
C 34.3611481731734 27.310539123165718 317.5100721579529
C 32.07887808427689 30.22016199623114 316.5978613011134
C 29.196223004417696 28.436860626910367 318.3240100293158
C 31.390760363826487 28.15307137611735 321.4240391592245
C 32.04868320531671 31.899470241749448 321.317274309301
C 28.30286999390737 32.48173120059075 320.9816671406589
C 27.771851752911942 30.408492229516245 324.1312566616478
C 30.33843392872644 32.63088283782502 325.8606536530325
C 28.87974144844885 36.065870765111455 325.10840736905584
C 25.14678981359668 35.60958694198228 325.6959647650062
C 25.172921813980818 33.20444160985682 328.6346082335451
C 27.80250437769313 31.37879190361609 330.6584251601972
C 29.875193593382406 28.388772909955236 329.5663597248413
C 29.44768246510071 24.75394569904704 330.5648706350734
C 32.059430032554026 22.327325101499657 331.82512901003486
C 31.330796960640363 20.31560296084514 328.67625596645973
C 31.71742094254966 23.20345216766358 326.22136210335435
C 35.12143837251546 24.059740874403378 327.71813678869654
C 36.215096688800855 20.467935941808033 326.94001695876483
C 35.01729595284317 20.16946524566615 323.3308897540732
C 36.66484836596422 23.556297206475477 322.74183163615044
C 40.077935246193995 21.865976017278413 322.8800282145051
C 39.034283242688396 19.727549164602696 319.89531232625075
C 36.95163462323476 22.349482905289804 318.0747328878547
C 39.976095290257476 24.66329785735333 318.04463674305157
C 41.93840119144887 21.871530705492287 316.350282797361
C 39.2368776183798 21.801960353846535 313.66779023648917
C 40.18873715162938 25.423439899762993 312.98712864199
C 43.72563865868567 24.30339346499886 312.1102476269788
C 42.83132108861275 21.531698868061447 309.6662399343454
C 40.785556397736165 24.047265356982813 307.67586345996165
C 44.12857149481539 25.649498910869287 306.8231166794021
C 45.49813137124469 22.201331745021594 305.889898330156
C 42.77768466813606 21.007360480564003 303.51116916604013
C 42.45901626917027 24.32369274769125 301.65898747788816
C 45.847435541025 23.80666567265736 299.9433416567376
C 44.56423788608946 20.29575664885342 299.2107053486025
C 41.37848048784146 21.741254696944893 297.69109505157417
C 43.35132604740243 24.14451719556771 295.50340147538145
C 45.4091770722369 21.24829890293208 294.14840806872513
C 42.43107031277621 19.080287049039985 293.1923018161184
C 40.363905777291926 21.74001575824373 291.39085775760367
C 42.798087407143576 24.334069426292743 290.0137657742038
C 44.14520392191226 22.54347165267882 286.954452656139
C 46.4327038578804 25.480235956498753 286.1635437077864
C 48.076211252062194 25.345780905068125 289.59431665101437
C 49.05653217865451 21.7116392855062 289.042780905871
C 50.88221024924376 22.648200717025105 285.84095643684407
C 52.61687366448196 25.622589428000357 287.46582698755225
C 53.70661247911804 23.179179202994714 290.179992912949
C 55.10984174551793 20.706717690548597 287.6438438874868
C 56.83891020565861 23.664527375249932 285.95536428105396
C 59.18381662898086 23.65384413650908 288.9581584322402
C 59.29438263444187 19.835397884931872 288.72296685593386
439
Mode 10 - Frame 6
C 49.22544111780692 36.15084858277795 337.3705427516767
C 50.675365793428284 33.98528764679865 338.7146509658143
C 50.534833024145854 30.7341542888883 336.78268284951986
C 50.27096932266374 33.08929907082592 333.8058934057774
C 47.51459106680422 33.98336845217558 331.35797630197385
C 49.03636529672427 32.24200420947431 328.3434350072396
C 47.91611433898443 31.39925537311804 324.82353156311217
C 47.015418152745305 27.71622023799159 324.3608280260706
C 46.73780445447817 27.230322042989883 328.1447174519852
C 43.382729986830576 25.43814908114487 328.11477807967884
C 41.60500647501926 23.411449503854808 330.8173707510214
C 43.19342766265478 20.169566799183496 329.52324512241853
C 41.04961454993986 17.50542485769719 331.15544861318386
C 43.43204009755076 14.520950559157876 330.985019367741
C 42.1536209765893 10.957306336686125 330.6840605619993
C 45.6891531816388 9.6021008877978 330.1366435246486
C 49.226827232551905 10.887472790812748 330.69358374268575
C 52.011858087278874 11.30489738547194 329.6225637300956
C 51.55436325345958 9.427109330567934 326.3384814955712
C 48.75375863801317 11.851067479057885 325.52026676336607
C 50.95086040741566 14.790434486199718 326.51001197535146
C 53.87744777112908 13.367893455606639 324.5145843525256
C 51.99053383451938 11.896532659160554 321.5516072311032
C 49.46033943663009 14.722235420143393 321.15748697005057
C 52.31674054385539 17.223505305251415 321.3778359796087
C 54.35971518196223 15.691840469999356 318.55002575015
C 51.167683195748154 15.005040936241352 316.5915836993611
C 49.82297206190984 18.55203063480613 316.88578543130336
C 53.224452785060706 20.126964326572544 316.2187818148323
C 53.73195323131446 17.974996597817064 313.1110575458973
C 50.25352247814143 18.851493719860873 311.84388680667746
C 50.98544707254935 22.545293285812495 312.3290941768128
C 54.36800096269639 22.567172905866975 310.5930718381651
C 52.88738409254055 20.578564722837193 307.69819883044477
C 50.29829065624749 23.32947428398976 307.2181170331754
C 52.86192529101811 26.141983815670724 307.28523103040214
C 54.91343077927953 24.404663937703287 304.5941803121859
C 51.999854062227854 23.389513445410113 302.37276777541723
C 50.50026047715067 26.890346103636748 302.5147880136336
C 53.99675659078846 28.265526981766318 301.9481755669347
C 54.0698406711557 25.975921284848244 298.9049643840828
C 50.873410382781984 27.554216715882987 297.54869186566947
C 52.31965194082467 31.027220184930194 298.1284728716308
C 55.409814496901255 29.961085994627084 296.1649253975398
C 53.89962755350211 28.674210440438692 292.9104400126693
C 51.720740623367114 31.792129777718092 292.6275817514207
C 54.45543592020371 34.389412007369565 293.1286639056935
C 56.81694969103358 32.179732587288164 291.10297128774096
C 54.762393307422755 32.05396637923747 287.8939576954832
C 53.542758385776196 35.12674577620073 286.01976650887036
C 50.655436375823804 33.318746679390536 284.3148196868766
C 48.945242087203795 33.238681808310645 287.74302060597046
C 49.93626143821981 36.45620150593407 289.5376893923858
C 48.241440677869114 38.33760864006366 286.67971756951175
C 44.964608106748585 36.42808080377966 287.1472492282605
C 42.41019059803206 38.01285156877392 289.5278578638328
C 41.280700352404104 34.52938500451261 290.5880877097375
C 44.703762599507705 33.74924216616984 292.0935070724995
C 44.679078727848314 36.96962771003327 294.0830862900756
C 41.84661495602093 35.11269835903671 295.8520692538732
C 43.70237236049212 31.830771401070905 296.4448849144194
C 46.92166411163125 33.578302636257234 297.4383703029951
C 44.93532226623838 35.71435552443145 299.87834101203475
C 43.39041192698829 32.59580112200504 301.4285908614615
C 46.70676471086024 30.74032312580247 301.54129221008066
C 48.51524365827752 33.62115672632006 303.255642617868
C 45.57751617176976 33.81963558282698 305.67162660378744
C 45.84361060032505 30.0766696637036 306.3219908827682
C 49.599869236371035 30.54336715464046 306.72812901478494
C 49.30052814643971 33.500346706480926 309.1277703339607
C 47.26727840796383 31.281479004684797 311.4465317486068
C 49.25898534843555 28.074811277325217 311.0264130389599
C 52.445289752645905 30.040638846861512 311.7610972587717
C 50.946893225991396 31.483535968323675 314.9538963702646
C 49.84364703645152 27.974928385988385 315.91650231498556
C 53.30480202019458 26.418832103917424 315.6316237589707
C 54.941248255062234 29.480674647716157 317.2012461340433
C 52.64469112812278 29.587488392182596 320.23729840460953
C 52.75743962663612 25.791597887353323 320.5402912167499
C 56.56127482176435 25.60336268261394 320.6459154290186
C 56.73751806400498 28.804609603978875 322.729285718958
C 54.568977615293484 27.3604921709585 325.5314914673092
C 54.519539574300126 23.555253518842203 325.33707268523307
C 58.325204127218356 23.38187479290152 324.8944240204236
C 59.788507424790076 26.497330686250248 326.5310065375481
C 56.88189419439633 27.17742380885348 328.93673075266815
C 57.43766905799743 30.91435800800563 328.515260865231
C 54.89818009652494 33.41059293604178 329.8310064347599
C 52.696743578686295 35.75508451210955 327.82016595003176
C 52.16462905196465 39.366906612596104 328.8385744039359
C 48.983230278456986 41.20768062035683 327.8460748907891
C 50.23890897194382 42.47293862566567 324.4812462759298
C 52.11949013380928 39.31662835920567 323.46751051965714
C 48.951379324126734 37.32813706856298 324.1893376766836
C 46.57245741551691 39.54224529273721 322.2060406707505
C 49.00861172077691 39.68283262051203 319.2819178476868
C 48.920784310220846 35.8862038639089 319.01709917999875
C 45.133578573801024 35.798040453152964 319.38169933116416
C 44.71511563586443 38.75363041416159 317.0348356103833
C 46.80793073174591 36.985966865233806 314.4133476115529
C 44.47065086152946 33.99145481342526 314.52666271599884
C 41.50888221500829 36.37389117126815 314.5573761709004
C 42.975236534223924 38.18473477899329 311.53965546793984
C 43.52460212208594 34.88389940233989 309.71276689823173
C 39.823296365199255 34.02269025769706 309.87846564813987
C 38.73464643470191 37.60379453415038 309.1981700088148
C 40.72404442938572 37.791247695813595 305.9591396792087
C 39.41119744997561 34.33096902297959 305.05116734125494
C 35.814294987727926 35.54448890746759 305.3390640515603
C 36.82813542798967 38.83815663753852 303.7323826697937
C 38.273775870293065 36.90739849398741 300.78733989415997
C 35.08775994592352 34.87190083034595 300.32067373238294
C 33.234497487463514 38.1956494413688 300.36109717032593
C 35.35078924291544 39.66601416786997 297.54960558539995
C 34.90480983520988 36.453538110925834 295.57178076924976
C 31.12329156612142 36.82196520951971 295.8244122067909
C 31.453252189796864 40.33924195282718 294.38666267586956
C 33.55054562533432 39.06628607260926 291.4767568713357
C 30.89366871878752 36.46181311853955 290.7077084984318
C 28.14228150526473 39.07120115651572 290.9954141115516
C 29.951579214274542 41.14964169675372 288.35670405898077
C 30.382488659611862 38.07176103451818 286.156086797027
C 26.648484091754813 37.35196643445823 286.414413043558
C 25.335843798628982 40.89715693293291 285.9357567249695
C 28.01122219686832 42.158576074187685 283.4872606396898
C 29.11639497039777 39.05987489009278 281.55445628507897
C 30.13112236529577 41.079078325182344 278.491167900819
C 32.4340436150253 43.607561427132175 280.1824773413022
C 33.470318456046726 41.45827212876139 283.1674956635642
C 37.048403812568694 41.0018479092303 281.93013670410096
C 37.64411109300103 44.762347991955025 281.73648015774984
C 35.9341043817179 45.54451434306259 285.071142444951
C 37.702520165415564 43.05366257240607 287.3652708015301
C 41.38024952959694 43.607440487644176 286.5380008969712
C 44.694187833768815 42.909219121224304 288.24110559775136
C 45.04497054402806 46.46081500036513 289.64953735836025
C 41.401724526819535 46.419703498699185 290.7583880350889
C 41.77573654813305 43.07173831824635 292.5299923705183
C 44.955158766103985 44.1063557227851 294.3627117318959
C 43.294548024510945 47.24447523122871 295.7351573025688
C 40.22849417737939 45.313846466994505 296.9075304388393
C 42.31154779176212 42.69096476364891 298.71049771528413
C 44.76769795268723 45.18487420920706 300.2108870017513
C 41.842640550580064 47.185622764559874 301.59985538589484
C 40.14798511093969 44.041493283513155 302.87347500153084
C 43.23557141516046 42.90188334422396 304.78115031218965
C 43.71024044036723 46.288287515069484 306.4478721555167
C 40.08164292559089 46.0915757609469 307.57433460680085
C 40.72692181675964 42.51612302510902 308.71427284553124
C 43.953982250883385 43.45023785443712 310.5157676423997
C 42.31743066691439 46.45362219707819 312.1833188036425
C 39.83450500071638 44.23396795217871 314.01707626868085
C 42.58892101372541 42.05618425894291 315.47092911073827
C 44.54571523527802 45.10571571842043 316.61310838302177
C 41.445034320606815 46.79131815784915 318.1282035852089
C 41.42402334130633 44.333567026098905 321.05767518108826
C 45.203864541823975 44.523665605272235 321.26367190068123
C 44.95610571944823 48.30022194586313 321.19802011438856
C 41.91130959877985 49.32281646538621 323.2571943027387
C 39.08202191089172 46.865547268132204 323.9602044726357
C 40.13971479956322 44.88850817136363 327.0419185271114
C 39.32074807685058 43.51657974965257 330.44837587030867
C 42.31744324360914 45.306420289380824 331.9539205056481
C 41.995959692403765 48.634998409796424 330.152795648173
C 38.18641244228916 48.85854426423247 330.3131387653763
C 37.5450672389826 46.93319541110943 333.56368743246804
C 34.80527891828832 45.224583912536914 331.55288762792577
C 33.325313637374116 41.7465504309746 331.84839782006605
C 35.92225431239029 39.193368186730005 330.82158902821345
C 35.41780362141431 36.26769458401423 328.45306501789486
C 35.20831494119457 32.83613659817251 330.06634564708054
C 37.28975514969773 31.398875991403656 327.1918304307505
C 40.00396258178762 33.90847894159712 326.3232376767461
C 42.01445162252702 35.953826021667204 328.84379737057424
C 42.13312982181335 39.74759978942868 328.48298274930227
C 39.237678786102045 39.68624252157952 325.96931274339687
C 36.25339437907201 42.01629047842276 326.2822773892955
C 32.836112355739864 40.393795527702046 325.9958416848848
C 31.3378806408628 43.294629626436056 324.04917639571664
C 34.19501224954958 43.14996177654005 321.5481319767003
C 33.232248449812296 39.56413791896216 320.7031192187703
C 29.630035708955994 40.5788740168679 320.03273685595536
C 30.964012852006576 43.07875988298883 317.4926225840586
C 33.37752246087145 40.49356079076627 316.06920450393346
C 30.840223854638513 37.64865614960149 316.01321619897806
C 28.127088014639096 39.8346323977046 314.5156945576715
C 30.414215840065424 41.1280469652159 311.757635352018
C 31.524057489828838 37.68668859254774 310.5720964076749
C 28.065409109024312 36.16767417394017 311.0984547796355
C 26.45292288458257 38.795096319377386 308.84860483608486
C 29.186949243108895 38.39283339627808 306.23772677719603
C 28.89463995703799 34.59506089329936 306.29898773417295
C 25.092378256119243 34.73256248572502 306.1037763990953
C 25.44577649886682 36.85432991720785 302.9670334113881
C 28.215933892467806 34.6742526050861 301.5086574125838
C 26.075596293018545 31.563044266794577 301.98611557320254
C 23.16252042054964 33.21660943795233 300.1796954108776
C 25.44365622025215 34.62364332268163 297.4791877279048
C 27.266630180061277 31.3560836589791 296.78248735416554
C 23.917210513802164 29.594839105411413 296.3326813396847
C 22.732352093131162 32.29422829550844 293.91591586034576
C 26.076652960237237 32.174815091118774 292.08128749755593
C 25.871863083572933 28.395924090586018 291.6801694497591
C 22.20311745785477 28.600302726847953 290.6493629684705
C 22.965226001106952 31.247574064197288 288.0250051500145
C 25.867324066662647 29.106790008866756 286.8099622299962
C 23.437417678108567 26.280305651485662 286.00822063180385
C 20.854821287954618 28.524418346999383 284.31825275980583
C 22.801617232860316 28.664919764881773 281.04678792343776
C 24.40474078905481 25.21894530899049 281.13896170189787
C 25.156818265203512 22.374950877040384 283.45323413043104
C 28.576016950388013 20.850337868269225 282.87406105482626
C 27.80025373634641 17.128183043629903 283.1302584565875
C 28.929786839251268 14.562770059770372 280.57655299813104
C 27.498999934613703 11.053250673473674 280.33121024457233
C 29.434551671509436 8.16705167310163 278.80179621751824
C 27.71298692640989 4.839468671698431 278.11285790242283
C 29.90099265384068 2.083021234924382 276.6914611011986
C 29.385158354103655 -1.4894495045963734 275.5930741819178
C 32.52719293140539 -3.630799921777045 275.65892788339545
C 33.31710325367511 -7.332593227903951 276.0791370411406
C 37.12348343438909 -7.423359485166728 275.8535646664847
C 37.57552936145511 -3.910949725292179 277.25722706705454
C 38.79263516471845 -1.995747267463686 274.1967084221139
C 35.77718827522899 0.311431565383252 274.21274914597416
C 35.949507743106054 0.5251255689743338 278.0196848883466
C 39.57042533010345 1.6747582306721187 277.7946368675588
C 38.543939880922366 4.119750919092342 275.0595243448598
C 35.757290231330266 5.560011566175912 277.2135052532281
C 37.992529686537196 5.8030535345359535 280.29299457960354
C 40.55706123378788 7.70506225537665 278.20982236698603
C 37.90306691838867 10.139158289774803 276.96032293164757
C 36.62073570871102 10.373822264776376 280.5385873714154
C 39.848998330366 11.82152915503152 281.955045931386
C 40.331279200578116 14.379463654325837 279.15846027372544
C 36.84061769005138 15.75679086450406 279.8103006274456
C 37.36580596152158 15.545199574355822 283.5782946573647
C 40.4196145853237 17.785028234410873 283.24846352282015
C 38.57035154256947 20.179988505838164 280.9319221687376
C 35.892638374116636 20.989202445586272 283.51865347317755
C 33.11395633377702 18.445185921565134 282.952921578226
C 31.445464691481224 16.486135191149987 285.7455176470219
C 31.95752841165221 13.157633711777478 283.9941678794556
C 29.6631093374506 10.188227833107101 284.6895159198614
C 30.84194353580943 6.944600373455706 283.0693024384641
C 28.520949491599087 3.9318624136877327 283.0729528572704
C 28.486456556085695 0.48241744408616555 281.5084615761679
C 25.543920435985758 -0.06480623867133027 279.15867852584387
C 24.567537275960227 -3.234725335180445 281.04439492223617
C 23.744561317826275 -1.1969511042013237 284.1767825346142
C 21.517036391209626 1.5927084711023447 282.796559264329
C 17.827455078222474 2.01325456375411 282.03354762416984
C 17.01703345162525 3.831265551103448 278.8013638127677
C 14.069005290790418 5.849863964942104 280.1182876481411
C 15.204835897503333 9.411011167879801 280.7679659009623
C 18.844426062971678 8.310751954424662 280.78614786122375
C 20.246537769935106 11.46733578278573 279.17956412258974
C 18.349747658713756 13.868156633961233 281.45100345046086
C 20.530977963531683 16.21128192594789 283.480337815355
C 23.46391618154492 15.856183895628655 281.0705527896606
C 24.226685100406645 18.298323377216363 278.2649690413898
C 26.903306566408546 16.068807878114928 276.72655217278606
C 26.347616649764813 12.35652052961763 276.0758631869196
C 28.928491287623743 10.02825931652897 274.5278478170424
C 27.767458844887262 6.585116730213885 273.439090961175
C 30.447750179742105 3.983987181063621 272.7381124644573
C 29.89280537808694 0.514965576059905 271.3416360764898
C 31.954307093643717 -2.190071973632483 269.6555783878353
C 30.811726321863965 -4.089020140189328 266.56682745954885
C 30.26858267018271 -7.8625494756822105 266.6013225056115
C 29.002899614702287 -8.760661362650644 263.14635084211096
C 29.875430988318158 -12.460967185687764 262.90083507379865
C 28.38818122740904 -12.605525824129392 259.41042224251044
C 26.045221636861235 -9.602110331703656 259.76084506947996
C 26.322342542633322 -6.346835395686618 261.7383201712336
C 25.61472592071744 -6.432541464416269 265.4646689434235
C 26.091916884779913 -4.1283906418094665 268.4293849218722
C 27.881264696234428 -5.295695714552454 271.54831331015816
C 25.27040973818819 -7.257060972328001 273.44363062012104
C 25.121734549485346 -5.0532872017817025 276.5373605071128
C 24.264911564580256 -2.051936678150493 274.3445729065654
C 21.335176357058135 -3.5375964084324165 272.41023991004994
C 18.671869123358075 -2.927944361194818 275.1232851813346
C 19.65445001538003 0.7465162625999945 275.1584130743903
C 19.774667559024376 0.912128857011471 271.3692443994291
C 16.308069574072057 -0.6159591909761157 271.04516629684605
C 14.803169387577546 1.9699802441151986 273.4226954340813
C 17.011565401171865 4.906863290574317 272.4661936077118
C 14.023232273146544 7.177073772342528 271.77539326864394
C 13.241473486399483 7.118285531680934 275.52224560277074
C 16.604598271399173 8.584071026118929 276.5562957431921
C 15.857863119661653 12.242827722662023 275.816375491905
C 18.270365340176294 12.578694055817952 272.87904966854785
C 16.29165283074942 15.155709895217502 270.8826555788625
C 18.0138464342758 18.52339743587089 271.0402106617215
C 20.838531593125268 17.162054059224214 273.18113637836166
C 24.535848346995536 17.191394330240826 272.2839784143443
C 25.861044451783247 13.683392421082567 271.576811845636
C 28.763394381922826 11.927208005079931 269.88535242044713
C 29.680658883507157 8.302161536148281 269.29246207750083
C 32.809269069739564 6.179969966221402 269.51306117866505
C 33.55736510735738 2.4991420908537347 269.12352174369954
C 36.21995577595918 -0.15843495511410052 268.6372695878449
C 36.28465420755838 -2.345087479394851 265.54802876068317
C 38.6043706382009 -3.9175324388478634 262.998290043828
C 38.89494640541553 -3.0550501840901414 259.31810174464306
C 39.1532283869529 -6.671961843623417 258.1159367534537
C 35.38659544908719 -6.95507949390065 258.63029245111227
C 33.021891449317174 -5.744375001451939 255.94734801946188
C 31.43455627750508 -3.002988901614566 258.07473846450034
C 34.21942797708777 -1.3516946523986406 260.0576762495598
C 32.65954757145771 -0.03717946043159908 263.2776811602026
C 29.17603229180729 -0.5610900804897212 261.8699898351545
C 27.902691201965567 -0.1254183115107353 265.42763234516815
C 28.771895503025014 3.5799460522452375 265.6159635527216
C 27.17018066636129 4.042938248376353 262.1916717583325
C 23.934768592517443 2.4925028958737157 263.44847469231604
C 23.969477562981336 4.532793451852617 266.66363227753135
C 24.68810434289377 7.824261864104925 264.8835984986062
C 21.954633956883953 7.237061953447756 262.2923497755602
C 19.407813757398717 6.601043650715839 265.03976985798
C 20.65011039914364 9.637818511354226 266.96541996925146
C 20.147593794065102 11.717149631647446 263.81700074592527
C 16.656225359855178 10.286081229687307 263.36242436158716
C 15.890193238732826 11.270463433636111 266.97174501664654
C 16.87045969054725 14.90897156214447 266.4792280984113
C 19.981620151160307 14.781122940127396 268.6370894770439
C 22.593030564075445 17.482499850304812 268.03155085629663
C 25.606150404465808 15.43268513252898 266.9410494316995
C 28.602167693257787 17.58983234446501 267.8265248751358
C 31.091514470318405 15.855744699366818 265.5153096146675
C 31.80364413316353 12.680710536139605 263.58066117166555
C 32.20500556898131 9.41814376469644 265.4179030957625
C 35.47563372896983 7.995528726393617 266.6888450771889
C 36.24147067728974 4.686096157661619 264.94771286094453
C 39.20253031680443 2.8226520412269807 266.44774259601314
C 40.892189058241975 0.14579496188688584 264.3419419007657
C 42.68659047427369 -2.6423921276688183 266.1585245529468
C 44.113288451829625 -1.999545928447262 269.6030055837244
C 42.948701987728036 1.325016986646136 271.0918597457854
C 46.11931460876098 1.665442950162175 273.1645425947657
C 48.08927910110104 1.9034970459041416 269.8947015332189
C 45.80229752197828 4.747885132019149 268.70801890314254
C 45.67988627757249 6.867826606829087 271.87419714798153
C 46.58521525455539 10.133671601915607 270.11455072094935
C 43.33529726473711 9.94890538072816 268.13967871164976
C 41.17639473810696 9.132803323134974 271.17385035986916
C 42.593153939358196 12.119614865221767 273.05010370359116
C 42.36578455194874 14.27249178218974 269.92646871435124
C 38.72366180031237 13.307995928574112 269.4294968925071
C 37.91054224379081 13.989980393145613 273.08552636870166
C 39.494837918698586 17.421830418430464 272.6609476957571
C 37.18687857016036 18.233669114947215 269.75077375323974
C 34.106883807875455 16.9443662922312 271.5891268333101
C 35.16212945714183 19.03931658677803 274.5978910303671
C 34.036411032702595 22.228166742355082 272.8623341934729
C 30.38942108862416 21.143052856052222 272.80276584676363
C 29.78674067555744 23.436017227538862 275.8068757335712
C 31.63395150738545 26.794074622914913 275.7047851969483
C 34.68684640344765 27.231013333706947 277.92268256114244
C 33.15204646416316 30.18007259233748 279.767053406264
C 30.119012206602857 28.158934792980496 280.8486500812333
C 32.22061413220701 25.281487514564585 282.15549698832695
C 34.7077788505631 27.65080108921206 283.79910042223844
C 31.925800018781526 29.577038917429235 285.52339063346983
C 30.554774807506227 26.28714448001124 286.8709199140895
C 33.825526818236526 24.985965931681367 288.3039054737378
C 34.514886537958574 28.392096762705396 289.81536253577286
C 31.06694169305788 28.287402465185153 291.40774812573534
C 31.549246419005918 24.66559706661018 292.4877665417908
C 34.99010251393727 25.39908695947155 293.938162488208
C 33.753761655105016 28.343317068915468 296.0027326281484
C 30.916470938399822 26.40899247502299 297.6319163071678
C 33.39632067348508 23.722457306108893 298.66879610598886
C 35.72780573118888 26.275645391540007 300.2682882227632
C 32.706299763706184 27.69940755098238 302.0862895306371
C 31.331363422640322 24.388498335543957 303.37112869134813
C 34.77222210510234 23.3602302339896 304.63512904865894
C 35.106842198549685 26.715434889974308 306.3840214394352
C 31.73616111735798 26.29549215435241 308.1053389447076
C 32.56984627227898 22.738782966539244 309.17742206259095
C 35.890206472062374 23.635498614367087 310.79619756711264
C 35.438440244691314 27.153647026320545 312.1614811300303
C 31.686734577831405 26.906390036501534 312.7257131099407
C 31.838159822115987 24.90266090355576 315.9712161285977
C 34.35968993955535 27.30548641271534 317.51037379922974
C 32.07690240449624 30.21497407192352 316.59814223931204
C 29.195164860026225 28.43105399968555 318.325287425177
C 31.390540464093036 28.147972739702535 321.4250248588054
C 32.047670245967446 31.89460713908753 321.31749761343184
C 28.30167900354114 32.476108236524524 320.9824199424787
C 27.77183719720172 30.402943987433808 324.1325582732208
C 30.338181977808812 32.62625661704607 325.86111057414917
C 28.878439651314785 36.06075243161046 325.10854555225
C 25.145689136160243 35.60355707193099 325.69684497468427
C 25.17291413724967 33.19879021218787 328.6358461788992
C 27.80333938402585 31.374254939890363 330.65954694493695
C 29.876783568982237 28.384725008684942 329.5676714557225
C 29.45059685192879 24.750012948626573 330.56721438463063
C 32.06330148888747 22.324607828544586 331.82769449920227
C 31.334999000395115 20.31183292945554 328.67952121920325
C 31.719916909777204 23.19927458868879 326.22365592248497
C 35.12393605111242 24.056966238835457 327.7195248159588
C 36.21942634297773 20.46488590261101 326.9426696315968
C 35.02017238978305 20.165878063589574 323.33372630819537
C 36.66630625977586 23.55318445274873 322.7429933309233
C 40.07999078321032 21.86391176762429 322.88120921041633
C 39.035587464133414 19.724461149503444 319.89711033063605
C 36.95091145024506 22.34501378788915 318.07578670150815
C 39.97512279166237 24.659596054704963 318.04460107649686
C 41.93696780054947 21.867360837791228 316.350506934896
C 39.23441096549785 21.797538114957486 313.6682605681169
C 40.186158521481936 25.419064745315808 312.98704308729305
C 43.723050357962116 24.29901375133247 312.1103701258218
C 42.82821067976491 21.526760027710356 309.66685260524054
C 40.78227272188274 24.042382137613505 307.6758500537136
C 44.125485672218595 25.644147695741438 306.8232263210956
C 45.49441322207926 22.195375003807822 305.8903792750114
C 42.77352991732976 21.00209385906277 303.5113821466303
C 42.45518863318201 24.318458749994537 301.6589862483987
C 45.843550885970046 23.800250790928942 299.9435715734082
C 44.558861042120554 20.290037997965463 299.21057823264476
C 41.37352020572553 21.736861358271707 297.69080982784357
C 43.34723427072174 24.139560517617177 295.50344089443104
C 45.40359788628843 21.242437122573662 294.1483499496739
C 42.423909677057445 19.076878741586462 293.1911532244195
C 40.358987252421166 21.73854452340339 291.38966556581016
C 42.79495405417053 24.331032493332774 290.01374277663365
C 44.14178745258252 22.541161510805946 286.95469347133815
C 46.43208566819841 25.474760737600686 286.1639898338773
C 48.074170099046206 25.338395482774324 289.59513322531467
C 49.052166084653784 21.703749030871982 289.0436430632532
C 50.879481699465806 22.63899099020969 285.84242494164596
C 52.615584849041426 25.612337826769938 287.46738096778586
C 53.702843382284556 23.168494581743158 290.1822504829456
C 55.105113304600046 20.694613158880433 287.6468723091193
C 56.83683949425957 23.651225931727716 285.9588365396598
C 59.18065668952626 23.639101012269485 288.9623959632544
C 59.28843088982981 19.82031638885662 288.728167431652
439
Mode 10 - Frame 7
C 49.2261011087212 36.15308107068087 337.36933359711236
C 50.676936385935576 33.9881800317533 338.71353816128294
C 50.53729331200579 30.736720663663395 336.7819828219815
C 50.272064773541636 33.0913236360048 333.80492878789914
C 47.51516650630987 33.98443644194776 331.35719828145113
C 49.03715892906042 32.24310125475634 328.34276935496683
C 47.916805097590405 31.399678364069835 324.82309883467644
C 47.0166712227597 27.716367409965716 324.36068305987044
C 46.73957790357896 27.230976591922563 328.14461313450977
C 43.384271521574945 25.43870432093168 328.11426521318526
C 41.606514943679116 23.412886815500634 330.81779901499766
C 43.19545810476367 20.171283684709326 329.52444458236147
C 41.052841790517704 17.506769638550974 331.1573886083698
C 43.440085518028944 14.52519860458907 330.99274392539206
C 42.16603465391486 10.959239829522513 330.6985966307383
C 45.703236461257866 9.60745265647897 330.15216598235287
C 49.23984446488363 10.897823096534609 330.70503597205254
C 52.02387128124816 11.315358500513915 329.6313643170017
C 51.56543978834949 9.433329826981302 326.3495177321821
C 48.762385323824155 11.85399550406565 325.5299678223213
C 50.95775506055466 14.79612141649226 326.515405382742
C 53.8841864592678 13.373052935362828 324.51927268354814
C 51.99558547439091 11.898659304249504 321.55881022895585
C 49.46382831714824 14.722886010221055 321.1636790232165
C 52.31947081838715 17.225447891389795 321.3807534245813
C 54.36143884890811 15.692610116597375 318.5528147614422
C 51.168308547953764 15.00435727405545 316.59659191596165
C 49.823107891690015 18.551255097413616 316.8891118859445
C 53.22419926511104 20.126505674176705 316.2204171226389
C 53.7304886233494 17.9731683541635 313.1132995838754
C 50.251855374990285 18.849322578147188 311.84662376574255
C 50.98395933201307 22.54325009043348 312.3304238448213
C 54.366264322935756 22.56448437800091 310.59389776100244
C 52.88502513180006 20.575117164399614 307.69971609017153
C 50.296338745099874 23.326205401114144 307.21903642593264
C 52.86018519289498 26.138555410699386 307.28556150442984
C 54.911439569859176 24.40035257172478 304.5948283837085
C 51.997699388954594 23.385332308214572 302.37353409971263
C 50.49862710218091 26.88647723398242 302.51509824081853
C 53.99537440032625 28.261072249987144 301.9485492083639
C 54.0681424079225 25.971073253751605 298.90560258721507
C 50.8721037742591 27.549976315289857 297.5490434008846
C 52.31895050069082 31.022751431859383 298.1287229939274
C 55.40916618814256 29.955834171292967 296.1655618189011
C 53.898970701018015 28.669055708960776 292.9110542508722
C 51.72077447148744 31.787519786225943 292.6278825519678
C 54.456049971371904 34.3841293813322 293.12901416307614
C 56.81726730723202 32.17368767498901 291.10360980638563
C 54.76295970888878 32.04825206717482 287.8944584863193
C 53.54411840959834 35.121295595318 286.0201214554444
C 50.656507469856415 33.3140277750521 284.3150399571902
C 48.94603008859329 33.234645472283226 287.7431129521171
C 49.93755304823912 36.45182330360028 289.5377666013415
C 48.243380310393675 38.33352325788192 286.6796132574076
C 44.966006964692085 36.42488534239946 287.14689500090805
C 42.41161607711111 38.01028546170689 289.52721153703845
C 41.281235084298395 34.5273002986762 290.58754329181596
C 44.7041173674152 33.74623688822318 292.09316462919713
C 44.67985926335519 36.96650294567849 294.08272461608897
C 41.84673446527486 35.110262356559474 295.8514782902738
C 43.701886653941614 31.82801882134652 296.44451403712145
C 46.92146595197582 33.57479739768111 297.43815871563737
C 44.93515418569917 35.71126402279888 299.877945277199
C 43.38960811328477 32.593004198388705 301.42816084309106
C 46.705702806932315 30.73700163246036 301.5411227559088
C 48.514477856527186 33.61773622374652 303.25535207149187
C 45.57653431346589 33.81678539150117 305.6711982189201
C 45.842267439981036 30.073821029948974 306.32185335947815
C 49.598537896264396 30.54023048232992 306.72795210222836
C 49.29931832438387 33.49775752609432 309.1272114112666
C 47.26596576790086 31.279215786046816 311.4462818374652
C 49.25756791049788 28.072426137666813 311.0265690223633
C 52.44402333326407 30.03847433777164 311.76046187285374
C 50.94588289769239 31.482280801541016 314.9531146966866
C 49.842945372177006 27.97369115355795 315.9166166762959
C 53.304335950039516 26.417956088817387 315.63146945731387
C 54.94098538764083 29.4806140761955 317.19979491237854
C 52.64508833183461 29.588104841435886 320.2363979982748
C 52.75878508246297 25.79235644738973 320.54039593040557
C 56.56265844784946 25.605024537358478 320.64504322205937
C 56.738592891367524 28.80710538324888 322.7276534975945
C 54.57103319145015 27.363211094301423 325.5307369909778
C 54.52303760155092 23.558190046278174 325.3373502203334
C 58.32891533481892 23.38589086462701 324.89352935500847
C 59.79131844967504 26.502144530777315 326.52927015257046
C 56.88476859770896 27.181373567409775 328.93553019016355
C 57.43916210595567 30.918350461522305 328.5133532947724
C 54.89891956259961 33.41349927338774 329.829681364922
C 52.69664045525875 35.75705356927801 327.8188024681893
C 52.16392656575944 39.36886753936468 328.8368639717039
C 48.98205254538195 41.20867147249464 327.8443873319094
C 50.237396639023814 42.47371275819399 324.479338038708
C 52.11846138330907 39.317662525097845 323.46570576336444
C 48.950756829217205 37.32864605714416 324.18811914974003
C 46.57129006310615 39.541936587726866 322.204762867777
C 49.00731431384418 39.68245935326724 319.28045162261196
C 48.92008891966017 35.88580186110146 319.0160068598435
C 45.13287378063248 35.797082555663906 319.3810000568733
C 44.7138412589619 38.752288159353576 317.0338683511282
C 46.80673930872592 36.98436577375644 314.41249515628806
C 44.469583754436165 33.989693213439125 314.5262359815392
C 41.50773427687061 36.37196670498061 314.5567535318815
C 42.97415049145954 38.1826660586216 311.5389084867988
C 43.523532787492655 34.881609694597216 309.7122535207214
C 39.822213056842315 34.02048239599153 309.87789280063214
C 38.733807636313635 37.60168284251692 309.1973551389176
C 40.723589437865 37.788973905850355 305.9584148275899
C 39.41042953640403 34.328773901461915 305.0504894560568
C 35.813668638459085 35.54272886565434 305.3381986369788
C 36.82800451073483 38.83638141025714 303.73162322117605
C 38.27376562707144 36.905497213466354 300.7865784906016
C 35.08738335728985 34.870708040766075 300.31974477715056
C 33.23465733034961 38.19481078039183 300.3603703759575
C 35.35169365493528 39.66496366467723 297.54899343112936
C 34.90512105968892 36.4528314685147 295.57090240804223
C 31.123579104560772 36.82223783274302 295.8235627036708
C 31.45454337714286 40.339664330442105 294.38623593957584
C 33.55175881892284 39.06661906218716 291.47619733336995
C 30.89406489834333 36.46312994156546 290.7068268342887
C 28.143345521371437 39.073129842386486 290.99483890870823
C 29.95347947601403 41.15159051628439 288.3564620228031
C 30.383287929903886 38.073989521272665 286.1554052307801
C 26.649100344469073 37.3550726503217 286.4136092808842
C 25.33761904584418 40.90082028144646 285.93547139353944
C 28.013471759758684 42.16203006735964 283.4872725514981
C 29.117418469906994 39.06325113540191 281.55388300965876
C 30.132727534805014 41.08269237894427 278.49090136103155
C 32.436833442781705 43.60982649359331 280.18254485905607
C 33.47234390717292 41.459655631770325 283.1671984010525
C 37.05029605806361 41.001795256142735 281.9296859297381
C 37.647498133303706 44.76208968272945 281.7363192932007
C 35.937856732933405 45.54453784967424 285.07119465720336
C 37.70542317698351 43.052504596117345 287.3648261557153
C 41.383414385736394 43.60517550869254 286.537498213719
C 44.697121359252144 42.906029981256204 288.2407448061681
C 45.04899099179109 46.457424582366386 289.64937910800506
C 41.405642326645555 46.417450539932474 290.75785734269783
C 41.77832953343902 43.069258439788904 292.5294435953843
C 44.95781674990602 44.103035719196946 294.3625614507957
C 43.297817926934215 47.24157200927726 295.73475317180544
C 40.23093897919522 45.31169144660234 296.90659493477614
C 42.31303529758611 42.68831242542886 298.70992633331565
C 44.76946653442142 45.18171500820368 300.2107447308698
C 41.84440650891143 47.18318330724843 301.5989347326283
C 40.148852772355816 44.03932212185742 302.87230845283966
C 43.23587174331772 42.8993643915692 304.7806544575423
C 43.71025142902198 46.28596984272985 306.447272184088
C 40.08121528666593 46.089499773099995 307.57284172633194
C 40.726049901734235 42.51402634623642 308.71318846227365
C 43.9528388846057 43.448237827926235 310.51507149008285
C 42.31557655897117 46.45173114028147 312.18209941415944
C 39.83265428999176 44.231955590539705 314.0157543904071
C 42.58708931571226 42.054455996224746 315.46996612465546
C 44.54350851510299 45.104423064409225 316.6118793768525
C 41.442567970109685 46.789778823422765 318.12675041896864
C 41.42201351107254 44.332313278725024 321.0564263766358
C 45.201801751899666 44.52305619404207 321.26224013749027
C 44.953414121014745 48.29963796062423 321.19628434990244
C 41.908490211468724 49.32193973557083 323.25542079684
C 39.07973780205989 46.86424691557154 323.95884275136115
C 40.13787367710833 44.88766305403605 327.0406808441086
C 39.319319795078485 43.515875010223034 330.4472961955105
C 42.315772519265224 45.30639379532776 331.9525001042521
C 41.99358133564158 48.63476982609983 330.1510953272903
C 38.18400907499051 48.85765509422439 330.3116369345227
C 37.54319652158185 46.932473106561325 333.5623934857265
C 34.80360068391505 45.223193830298 331.551922745987
C 33.324276820597795 41.7449303075337 331.84782187266586
C 35.921580401964704 39.192105351958695 330.8210218194471
C 35.41742902884683 36.26621815529745 328.45265666951855
C 35.20851214351797 32.83481747708951 330.0661329328932
C 37.290018172724174 31.39772776883353 327.1914570634288
C 40.00391516948868 33.90763248840477 326.3227915170557
C 42.01428945385532 35.95345245284066 328.84314827910464
C 42.13226741307737 39.74721588129018 328.48202221462003
C 39.23665865742744 39.685156752450474 325.96855009898877
C 36.25199563473599 42.01474987898558 326.281513129127
C 32.83492923333673 40.39172958368025 325.9953774274935
C 31.336138502129156 43.29219048272747 324.04859032873566
C 34.193230423418846 43.14776632384412 321.54745247526404
C 33.230934440595775 39.561722005342375 320.7027133474935
C 29.628574870400946 40.57594331809499 320.0323592120593
C 30.96227675561362 43.075961074658544 317.4921940154808
C 33.37622097456428 40.490889990095056 316.0688482325807
C 30.839091530184962 37.645761196018455 316.01286046211465
C 28.125949481998163 39.831644954199206 314.51526927844645
C 30.413357362553164 41.125581192605274 311.7573901757807
C 31.523328881974212 37.68429784592458 310.5715980894724
C 28.064650868737786 36.165191363946555 311.09769862659664
C 26.452416635992286 38.79327263321893 308.84803834977305
C 29.186718412386305 38.39145471599604 306.2372115660659
C 28.893983671422827 34.59364690792847 306.297936022902
C 25.091664307991106 34.73171985068346 306.1024408161205
C 25.44562917775993 36.85425359074312 302.966120894279
C 28.21556525357461 34.67398993647038 301.50754490268395
C 26.07461809643235 31.563000587680502 301.9844298735988
C 23.16190437405764 33.2175513346932 300.17808191333785
C 25.443503402147456 34.62476957684594 297.4779623479715
C 27.265882043208414 31.356910122053677 296.7809100501796
C 23.916168984051303 29.596385627115435 296.33061017701885
C 22.731865460317593 32.29656954152841 293.9142667356284
C 26.076180077713573 32.176908941766584 292.07974676188655
C 25.87071427108649 28.39806862495389 291.6780748925953
C 22.20202597303785 28.603378609810722 290.6470944467218
C 22.964687903405792 31.250982263304092 288.0231772972152
C 25.866379130936114 29.109842459487673 286.80794960684085
C 23.436065700794032 26.283838690152397 286.0057170939349
C 20.853853374132925 28.528642069161855 284.31602490348234
C 22.80054858886273 28.66884648751757 281.0445845252719
C 24.4030836631936 25.222461879210943 281.1363549259532
C 25.154981871356437 22.378421999528832 283.45050269845837
C 28.574143934687648 20.85378097490566 282.8712760107128
C 27.79848294669457 17.13175618105154 283.12784805180286
C 28.928314626802166 14.56623291851103 280.57447596997326
C 27.497903078725624 11.05655268850329 280.329848787088
C 29.43398275545934 8.170344593375617 278.8011013711473
C 27.712986328918003 4.842415032094161 278.11303421706697
C 29.9015407445549 2.0859928486774746 276.69244192082704
C 29.386308146339168 -1.4868193201060669 275.59508846917794
C 32.528709921533064 -3.627637325674379 275.66152961314464
C 33.31925597619105 -7.3291469722107525 276.0828908849637
C 37.1256992342058 -7.4193998226695 275.85715524491195
C 37.57724453599423 -3.90656001602809 277.25970536354396
C 38.79398955706665 -1.9919881362887923 274.1986145889364
C 35.778065221700935 0.3146504431635354 274.214108747517
C 35.95039928996414 0.5293359105357323 278.02099585097005
C 39.57122170609735 1.6794545083091676 277.79548861348485
C 38.54421134657296 4.123624222899243 275.0597311173923
C 35.75725779333762 5.5638510799248815 277.21339123780183
C 37.99255389437946 5.807854712618791 280.2928115230628
C 40.556789819082006 7.709772427612815 278.20894590688675
C 37.90229303923584 10.143141615728117 276.95892092200677
C 36.61990099034173 10.37815585127987 280.53719744725487
C 39.84817561438521 11.82630636781519 281.9533570489977
C 40.32992089453521 14.383872255949624 279.1561504968372
C 36.8390463427027 15.760803100516796 279.80789214996213
C 37.3641061119816 15.54932189371796 283.57593160923955
C 40.417768882857175 17.788868509934918 283.2458339789936
C 38.56876803169423 20.183918370087184 280.92922218163204
C 35.891067972075334 20.992685065311765 283.51607831270513
C 33.112217654376394 18.44885059492307 282.9503129685411
C 31.44370354294402 16.49007175924108 285.74321049221976
C 31.95622719730885 13.161775872176692 283.99234746375043
C 29.662017481513306 10.192534252773088 284.6884426456364
C 30.84171244425068 6.948923819036762 283.0689049407311
C 28.52108428986631 3.9361064306766553 283.0734534269895
C 28.487254359175814 0.4863212095544103 281.50989943954505
C 25.54473943940977 -0.06182674008128673 279.16030911311606
C 24.568795790168103 -3.2313308192851253 281.0469265922815
C 23.745455313167163 -1.1927899689772101 284.17873779074546
C 21.517540778613853 1.5961685151051224 282.79772737904545
C 17.82793289834188 2.016054032332384 282.0345781002929
C 17.01726349145904 3.8330600733363376 278.8018831640588
C 14.068868425978728 5.851548729393946 280.11820938988683
C 15.204097162391006 9.413068277463616 280.7669588940696
C 18.843851406334547 8.313345643832118 280.78551478794935
C 20.245511196510847 11.46972764341535 279.17812743370246
C 18.34831935783189 13.87090592472796 281.4489013067633
C 20.52924027265852 16.214768178101092 283.47774822862436
C 23.462312773711258 15.85939145435525 281.06815583654617
C 24.224888322838993 18.301217395129854 278.2622254942636
C 26.901675297819462 16.07149552776661 276.72424659588745
C 26.34650227691432 12.35892083358468 276.07425735711473
C 28.92769110087619 10.030601980277956 274.52678971125016
C 27.767251304089186 6.586995855412413 273.43886660728043
C 30.44796727342646 3.9860888966012222 272.73857462637244
C 29.89361912311137 0.5166092821596399 271.3430819149163
C 31.955600790216533 -2.188521388044771 269.6577985272338
C 30.81335909351959 -4.088518336394639 266.5696531107277
C 30.271031516314707 -7.8621632680946005 266.60549614540713
C 29.005637159122372 -8.761742739077151 263.15089139458036
C 29.879198266175184 -12.461971134492835 262.90695163166487
C 28.391982792846164 -12.608291987700559 259.41661133748516
C 26.048293813832874 -9.605223123988416 259.76577382686276
C 26.324597605590405 -6.348930174297931 261.741899575689
C 25.61686139828552 -6.433388850208401 265.4682185853325
C 26.09351266337667 -4.128179983980407 268.4321903481038
C 27.88301347719376 -5.2943107419120805 271.5514810812099
C 25.272439361109452 -7.255601288364741 273.44731561718316
C 25.123367697161402 -5.051015217328286 276.5403933285569
C 24.266095780194746 -2.0503799092610415 274.3467470932536
C 21.336601185293294 -3.53698383475415 272.41281019790085
C 18.673188505927637 -2.926936369887318 275.1256747293664
C 19.65520181734132 0.7476824120426778 275.1598030189252
C 19.77542930320972 0.9122718526733891 271.37058093294223
C 16.309078202251968 -0.6164143479553506 271.04691058073644
C 14.803771257617244 1.969979341227718 273.423686963239
C 17.011728347864125 4.906948447060549 272.4664309670317
C 14.023060079724678 7.176528717451296 271.77495421984617
C 13.241220912546634 7.118618496537213 275.52179980531713
C 16.60407718727091 8.585216827273056 276.5555323218372
C 15.856805713232859 12.243688191086944 275.8146559689547
C 18.269330886331993 12.579182797740216 272.877315254752
C 16.290265898224725 15.155376721360403 270.88021762123697
C 18.0119199234091 18.523369897362045 271.0369754329313
C 20.836819204344817 17.163153382749698 273.17840047890394
C 24.534150434565134 17.19282912033088 272.28137240219525
C 25.859858226019625 13.684781421715726 271.5749751584005
C 28.76240695755451 11.928497173086972 269.8839060563053
C 29.680186271689983 8.303357176014407 269.2918433646029
C 32.80909855800311 6.181659575165352 269.5129268680524
C 33.557838815609934 2.5008395662727714 269.1243682282115
C 36.220913501110346 -0.15639823433443334 268.638835783545
C 36.286009470206345 -2.3439032200879164 265.5502694831135
C 38.6060328565333 -3.916688430597796 263.0010454317197
C 38.89640642655793 -3.05532669083862 259.32057431362205
C 39.15547823274377 -6.672645632855268 258.119681443688
C 35.388907772630816 -6.956362788663538 258.6341905041261
C 33.02389738529464 -5.747088569890152 255.95088299443853
C 31.435998468942074 -3.0052278023976107 258.0773315373885
C 34.22054438948379 -1.3526404436275337 260.05967235043397
C 32.66044093855925 -0.037324768781354975 263.27926616566657
C 29.176993513901365 -0.5623281568789077 261.8717717565608
C 27.903591133297905 -0.12575734469790348 265.42926082188166
C 28.772210642712032 3.57985218230562 265.6165560156547
C 27.170417434233006 4.041610062270472 262.1921594812105
C 23.935260740931167 2.4910634087905636 263.44941043088437
C 23.96968219747884 4.5323269901054415 266.6639810894373
C 24.687834898369058 7.823496894401031 264.8831231270659
C 21.95448012129426 7.2351909944864135 262.29204584564513
C 19.407759543497175 6.599583175116724 265.0396222333699
C 20.649612720382105 9.637078981656563 266.9644794164846
C 20.146843994292013 11.715511190793872 263.81553830948263
C 16.655687232847395 10.28379983185518 263.3612554985389
C 15.889470834902323 11.269022143041719 266.97031659501636
C 16.86920103770208 14.907553494142906 266.47686200839524
C 19.980323129514673 14.780762941128938 268.63485415833827
C 22.59129527716307 17.482431290157177 268.02874249498575
C 25.604740509952524 15.432853551208167 266.9388122828334
C 28.600392971247143 17.590830130728985 267.8239895396536
C 31.089938405600417 15.85646426683168 265.51308435673656
C 31.80243961195662 12.680971520228107 263.57909181152246
C 32.20427458822952 9.418790165918153 265.4169846229421
C 35.4751142653307 7.996969658684086 266.6881981660167
C 36.24149218827933 4.687151702974326 264.94792824907756
C 39.20292017108456 2.8246470357270312 266.44841636514593
C 40.89306604049934 0.14752227495116832 264.3433560138315
C 42.68807993078254 -2.6398050231306125 266.1606965297681
C 44.11471840304292 -1.9958232978396926 269.60497103369164
C 42.94951100758518 1.3289024503267002 271.09285878435014
C 46.120105924545484 1.67053613862241 273.16539003221726
C 48.08997738969891 1.9081356846174442 269.8954648300998
C 45.802402523796786 4.751718867448474 268.70797406485366
C 45.67969827139026 6.872480307203064 271.87356632722066
C 46.58435675028404 10.138044004998438 270.1129763129651
C 43.33439680630766 9.952191615118227 268.13829296193927
C 41.17572724544614 9.136359106493027 271.1727009658814
C 42.592018419622235 12.123801866496002 273.0482346527034
C 42.3641751283524 14.27603332743991 269.9241593232182
C 38.722229575512316 13.310829279158744 269.4275544068111
C 37.909104554994194 13.99336146017681 273.08344812352027
C 39.492911018651235 17.425387440103243 272.65829457749675
C 37.18472501695363 18.236441827224592 269.74806698321885
C 34.1050047072688 16.947079462638833 271.5867104130516
C 35.160124476635616 19.04257591198678 274.59518962016944
C 34.03400760098273 22.23114500611848 272.8594245257852
C 30.387109520890395 21.14575170173561 272.80001301319516
C 29.784717926875892 23.439125764758078 275.8041736242762
C 31.632121202999777 26.79718578322932 275.7023988653592
C 34.68501129558036 27.234167395173618 277.92020013446245
C 33.15081462816558 30.182955148829237 279.7650906522692
C 30.117687400550942 28.162222371575325 280.84657748998734
C 32.21899692005284 25.28475465154993 282.15314318717276
C 34.70662618844245 27.65344272639176 283.79723122138563
C 31.924922537320057 29.579417210657724 285.5218089091349
C 30.55348485399649 26.289710406499037 286.86890535700394
C 33.82408842445808 24.988020973871205 288.30198166110466
C 34.51383020179757 28.393015229057465 289.81409944274037
C 31.06579647319817 28.288609116039307 291.40627414399324
C 31.54742959273133 24.666766908974232 292.4858820818656
C 34.98818770647555 25.398908124894444 293.93679884815253
C 33.75237969609324 28.342874537622198 296.00176066237816
C 30.91475577756473 26.408946428910795 297.63063282050445
C 33.394095920966436 23.72202118396447 298.6675528280709
C 35.726060168918025 26.274303821231204 300.2675244577081
C 32.70475958862693 27.698375026264955 302.08557152755884
C 31.32959764589388 24.387744173106046 303.3703119331515
C 34.77035846542461 23.358915392269825 304.63444941340475
C 35.10532681393838 26.71371808164671 306.3836568016314
C 31.73479741465164 26.29382366533727 308.1050802220029
C 32.56851388266272 22.73703636387372 309.1769386275359
C 35.88879913996183 23.63323629193481 310.7960694897527
C 35.43722640533182 27.151391486641664 312.1613660121207
C 31.68557989234933 26.90384853859653 312.7258828072493
C 31.837572997684912 24.899903273851383 315.97154592158006
C 34.358944533843086 27.30290361721158 317.5105279892909
C 32.075892495675134 30.212322159112137 316.5982858465746
C 29.194623968042908 28.428085824319957 318.3259403919993
C 31.390428057880882 28.145366468209872 321.4255287191533
C 32.0471524512356 31.892121265453394 321.31761175987083
C 28.30107020464139 32.47323394431034 320.98280475240887
C 27.771829756754993 30.400107890878303 324.13322361839573
C 30.33805318798331 32.623891830394506 325.8613441386523
C 28.877774211286567 36.0581360915524 325.1086161873945
C 25.145126502547683 35.600474781463404 325.6972949117272
C 25.172910213132724 33.195901385560525 328.63647897979405
C 27.803766214461305 31.371935778793244 330.660120367976
C 29.877596317282514 28.38265584178863 329.5683419735872
C 29.452086599910533 24.748002643424417 330.56841243978886
C 32.06528046237293 22.32321883931994 331.829005901063
C 31.337146958306374 20.309905801388794 328.6811903194194
C 31.721192774087292 23.1971391344017 326.2248284546922
C 35.12521279022372 24.05554792754694 327.7202343342672
C 36.2216395335911 20.463326813167487 326.9440255991573
C 35.02164273890915 20.164044402660547 323.33517627040965
C 36.66705149178919 23.551593305500397 322.7435871547858
C 40.08104151267835 21.862856584514617 322.8818129004476
C 39.03625414339738 19.72288264790668 319.89802941707245
C 36.95054178569282 22.342729307818196 318.0763253797468
C 39.97462567926626 24.657703803144162 318.0445828448135
C 41.93623509369708 21.865229325278225 316.3506215073464
C 39.23315008581052 21.795277597789255 313.668500987675
C 40.184840402342495 25.416828296315728 312.98699935427317
C 43.721727295511414 24.296774971794953 312.1104327435919
C 42.82662073114902 21.524235439219115 309.6671657844043
C 40.780594204320074 24.039885980916065 307.6758432008378
C 44.12390829136396 25.641412313512912 306.8232823666727
C 45.49251261466447 22.19233009462985 305.89062511973617
C 42.77140613212435 20.999401718583524 303.51149101598196
C 42.45323205935543 24.31578328583515 301.6589856199202
C 45.84156516569018 23.79697169392783 299.9436890999811
C 44.55611255918973 20.28711479349015 299.21051325474286
C 41.37098465684097 21.734615614035416 297.6906640299444
C 43.345142676018845 24.137026811074925 295.5034610442783
C 45.40074597214772 21.239440754564363 294.1483202409412
C 42.42024937276727 19.075136516051703 293.1905660984592
C 40.35647304860005 21.73779247185246 291.3890561527765
C 42.793352377199334 24.329480103408343 290.0137310209588
C 44.14004105493906 22.539980634897674 286.95481656891513
C 46.43176966799481 25.471961968328053 286.1642178802839
C 48.07312672225192 25.334620274263738 289.5955506338426
C 49.04993426708482 21.699715767063786 289.0440837724987
C 50.878086945864254 22.634283251414182 285.8431755976824
C 52.61492604486936 25.607097512719825 287.46817531632405
C 53.70091673193513 23.163032920720045 290.1834044856723
C 55.102696266049655 20.688425681827336 287.648420348306
C 56.835781008097825 23.64442662888618 285.9606114551241
C 59.17904142233538 23.631564765066845 288.9645620632433
C 59.28538853476623 19.81260717602211 288.7308258114887
439
Mode 10 - Frame 8
C 49.2261011087212 36.15308107068087 337.36933359711236
C 50.676936385935576 33.9881800317533 338.71353816128294
C 50.53729331200579 30.736720663663395 336.7819828219815
C 50.272064773541636 33.0913236360048 333.80492878789914
C 47.51516650630987 33.98443644194776 331.35719828145113
C 49.03715892906042 32.24310125475634 328.34276935496683
C 47.916805097590405 31.399678364069835 324.82309883467644
C 47.0166712227597 27.716367409965716 324.36068305987044
C 46.73957790357896 27.230976591922563 328.14461313450977
C 43.384271521574945 25.43870432093168 328.11426521318526
C 41.606514943679116 23.412886815500634 330.81779901499766
C 43.19545810476367 20.171283684709326 329.52444458236147
C 41.052841790517704 17.506769638550974 331.1573886083698
C 43.440085518028944 14.52519860458907 330.99274392539206
C 42.16603465391486 10.959239829522513 330.6985966307383
C 45.703236461257866 9.60745265647897 330.15216598235287
C 49.23984446488363 10.897823096534609 330.70503597205254
C 52.02387128124816 11.315358500513915 329.6313643170017
C 51.56543978834949 9.433329826981302 326.3495177321821
C 48.762385323824155 11.85399550406565 325.5299678223213
C 50.95775506055466 14.79612141649226 326.515405382742
C 53.8841864592678 13.373052935362828 324.51927268354814
C 51.99558547439091 11.898659304249504 321.55881022895585
C 49.46382831714824 14.722886010221055 321.1636790232165
C 52.31947081838715 17.225447891389795 321.3807534245813
C 54.36143884890811 15.692610116597375 318.5528147614422
C 51.168308547953764 15.00435727405545 316.59659191596165
C 49.823107891690015 18.551255097413616 316.8891118859445
C 53.22419926511104 20.126505674176705 316.2204171226389
C 53.7304886233494 17.9731683541635 313.1132995838754
C 50.251855374990285 18.849322578147188 311.84662376574255
C 50.98395933201307 22.54325009043348 312.3304238448213
C 54.366264322935756 22.56448437800091 310.59389776100244
C 52.88502513180006 20.575117164399614 307.69971609017153
C 50.296338745099874 23.326205401114144 307.21903642593264
C 52.86018519289498 26.138555410699386 307.28556150442984
C 54.911439569859176 24.40035257172478 304.5948283837085
C 51.997699388954594 23.385332308214572 302.37353409971263
C 50.49862710218091 26.88647723398242 302.51509824081853
C 53.99537440032625 28.261072249987144 301.9485492083639
C 54.0681424079225 25.971073253751605 298.90560258721507
C 50.8721037742591 27.549976315289857 297.5490434008846
C 52.31895050069082 31.022751431859383 298.1287229939274
C 55.40916618814256 29.955834171292967 296.1655618189011
C 53.898970701018015 28.669055708960776 292.9110542508722
C 51.72077447148744 31.787519786225943 292.6278825519678
C 54.456049971371904 34.3841293813322 293.12901416307614
C 56.81726730723202 32.17368767498901 291.10360980638563
C 54.76295970888878 32.04825206717482 287.8944584863193
C 53.54411840959834 35.121295595318 286.0201214554444
C 50.656507469856415 33.3140277750521 284.3150399571902
C 48.94603008859329 33.234645472283226 287.7431129521171
C 49.93755304823912 36.45182330360028 289.5377666013415
C 48.243380310393675 38.33352325788192 286.6796132574076
C 44.966006964692085 36.42488534239946 287.14689500090805
C 42.41161607711111 38.01028546170689 289.52721153703845
C 41.281235084298395 34.5273002986762 290.58754329181596
C 44.7041173674152 33.74623688822318 292.09316462919713
C 44.67985926335519 36.96650294567849 294.08272461608897
C 41.84673446527486 35.110262356559474 295.8514782902738
C 43.701886653941614 31.82801882134652 296.44451403712145
C 46.92146595197582 33.57479739768111 297.43815871563737
C 44.93515418569917 35.71126402279888 299.877945277199
C 43.38960811328477 32.593004198388705 301.42816084309106
C 46.705702806932315 30.73700163246036 301.5411227559088
C 48.514477856527186 33.61773622374652 303.25535207149187
C 45.57653431346589 33.81678539150117 305.6711982189201
C 45.842267439981036 30.073821029948974 306.32185335947815
C 49.598537896264396 30.54023048232992 306.72795210222836
C 49.29931832438387 33.49775752609432 309.1272114112666
C 47.26596576790086 31.279215786046816 311.4462818374652
C 49.25756791049788 28.072426137666813 311.0265690223633
C 52.44402333326407 30.03847433777164 311.76046187285374
C 50.94588289769239 31.482280801541016 314.9531146966866
C 49.842945372177006 27.97369115355795 315.9166166762959
C 53.304335950039516 26.417956088817387 315.63146945731387
C 54.94098538764083 29.4806140761955 317.19979491237854
C 52.64508833183461 29.588104841435886 320.2363979982748
C 52.75878508246297 25.79235644738973 320.54039593040557
C 56.56265844784946 25.605024537358478 320.64504322205937
C 56.738592891367524 28.80710538324888 322.7276534975945
C 54.57103319145015 27.363211094301423 325.5307369909778
C 54.52303760155092 23.558190046278174 325.3373502203334
C 58.32891533481892 23.38589086462701 324.89352935500847
C 59.79131844967504 26.502144530777315 326.52927015257046
C 56.88476859770896 27.181373567409775 328.93553019016355
C 57.43916210595567 30.918350461522305 328.5133532947724
C 54.89891956259961 33.41349927338774 329.829681364922
C 52.69664045525875 35.75705356927801 327.8188024681893
C 52.16392656575944 39.36886753936468 328.8368639717039
C 48.98205254538195 41.20867147249464 327.8443873319094
C 50.237396639023814 42.47371275819399 324.479338038708
C 52.11846138330907 39.317662525097845 323.46570576336444
C 48.950756829217205 37.32864605714416 324.18811914974003
C 46.57129006310615 39.541936587726866 322.204762867777
C 49.00731431384418 39.68245935326724 319.28045162261196
C 48.92008891966017 35.88580186110146 319.0160068598435
C 45.13287378063248 35.797082555663906 319.3810000568733
C 44.7138412589619 38.752288159353576 317.0338683511282
C 46.80673930872592 36.98436577375644 314.41249515628806
C 44.469583754436165 33.989693213439125 314.5262359815392
C 41.50773427687061 36.37196670498061 314.5567535318815
C 42.97415049145954 38.1826660586216 311.5389084867988
C 43.523532787492655 34.881609694597216 309.7122535207214
C 39.822213056842315 34.02048239599153 309.87789280063214
C 38.733807636313635 37.60168284251692 309.1973551389176
C 40.723589437865 37.788973905850355 305.9584148275899
C 39.41042953640403 34.328773901461915 305.0504894560568
C 35.813668638459085 35.54272886565434 305.3381986369788
C 36.82800451073483 38.83638141025714 303.73162322117605
C 38.27376562707144 36.905497213466354 300.7865784906016
C 35.08738335728985 34.870708040766075 300.31974477715056
C 33.23465733034961 38.19481078039183 300.3603703759575
C 35.35169365493528 39.66496366467723 297.54899343112936
C 34.90512105968892 36.4528314685147 295.57090240804223
C 31.123579104560772 36.82223783274302 295.8235627036708
C 31.45454337714286 40.339664330442105 294.38623593957584
C 33.55175881892284 39.06661906218716 291.47619733336995
C 30.89406489834333 36.46312994156546 290.7068268342887
C 28.143345521371437 39.073129842386486 290.99483890870823
C 29.95347947601403 41.15159051628439 288.3564620228031
C 30.383287929903886 38.073989521272665 286.1554052307801
C 26.649100344469073 37.3550726503217 286.4136092808842
C 25.33761904584418 40.90082028144646 285.93547139353944
C 28.013471759758684 42.16203006735964 283.4872725514981
C 29.117418469906994 39.06325113540191 281.55388300965876
C 30.132727534805014 41.08269237894427 278.49090136103155
C 32.436833442781705 43.60982649359331 280.18254485905607
C 33.47234390717292 41.459655631770325 283.1671984010525
C 37.05029605806361 41.001795256142735 281.9296859297381
C 37.647498133303706 44.76208968272945 281.7363192932007
C 35.937856732933405 45.54453784967424 285.07119465720336
C 37.70542317698351 43.052504596117345 287.3648261557153
C 41.383414385736394 43.60517550869254 286.537498213719
C 44.697121359252144 42.906029981256204 288.2407448061681
C 45.04899099179109 46.457424582366386 289.64937910800506
C 41.405642326645555 46.417450539932474 290.75785734269783
C 41.77832953343902 43.069258439788904 292.5294435953843
C 44.95781674990602 44.103035719196946 294.3625614507957
C 43.297817926934215 47.24157200927726 295.73475317180544
C 40.23093897919522 45.31169144660234 296.90659493477614
C 42.31303529758611 42.68831242542886 298.70992633331565
C 44.76946653442142 45.18171500820368 300.2107447308698
C 41.84440650891143 47.18318330724843 301.5989347326283
C 40.148852772355816 44.03932212185742 302.87230845283966
C 43.23587174331772 42.8993643915692 304.7806544575423
C 43.71025142902198 46.28596984272985 306.447272184088
C 40.08121528666593 46.089499773099995 307.57284172633194
C 40.726049901734235 42.51402634623642 308.71318846227365
C 43.9528388846057 43.448237827926235 310.51507149008285
C 42.31557655897117 46.45173114028147 312.18209941415944
C 39.83265428999176 44.231955590539705 314.0157543904071
C 42.58708931571226 42.054455996224746 315.46996612465546
C 44.54350851510299 45.104423064409225 316.6118793768525
C 41.442567970109685 46.789778823422765 318.12675041896864
C 41.42201351107254 44.332313278725024 321.0564263766358
C 45.201801751899666 44.52305619404207 321.26224013749027
C 44.953414121014745 48.29963796062423 321.19628434990244
C 41.908490211468724 49.32193973557083 323.25542079684
C 39.07973780205989 46.86424691557154 323.95884275136115
C 40.13787367710833 44.88766305403605 327.0406808441086
C 39.319319795078485 43.515875010223034 330.4472961955105
C 42.315772519265224 45.30639379532776 331.9525001042521
C 41.99358133564158 48.63476982609983 330.1510953272903
C 38.18400907499051 48.85765509422439 330.3116369345227
C 37.54319652158185 46.932473106561325 333.5623934857265
C 34.80360068391505 45.223193830298 331.551922745987
C 33.324276820597795 41.7449303075337 331.84782187266586
C 35.921580401964704 39.192105351958695 330.8210218194471
C 35.41742902884683 36.26621815529745 328.45265666951855
C 35.20851214351797 32.83481747708951 330.0661329328932
C 37.290018172724174 31.39772776883353 327.1914570634288
C 40.00391516948868 33.90763248840477 326.3227915170557
C 42.01428945385532 35.95345245284066 328.84314827910464
C 42.13226741307737 39.74721588129018 328.48202221462003
C 39.23665865742744 39.685156752450474 325.96855009898877
C 36.25199563473599 42.01474987898558 326.281513129127
C 32.83492923333673 40.39172958368025 325.9953774274935
C 31.336138502129156 43.29219048272747 324.04859032873566
C 34.193230423418846 43.14776632384412 321.54745247526404
C 33.230934440595775 39.561722005342375 320.7027133474935
C 29.628574870400946 40.57594331809499 320.0323592120593
C 30.96227675561362 43.075961074658544 317.4921940154808
C 33.37622097456428 40.490889990095056 316.0688482325807
C 30.839091530184962 37.645761196018455 316.01286046211465
C 28.125949481998163 39.831644954199206 314.51526927844645
C 30.413357362553164 41.125581192605274 311.7573901757807
C 31.523328881974212 37.68429784592458 310.5715980894724
C 28.064650868737786 36.165191363946555 311.09769862659664
C 26.452416635992286 38.79327263321893 308.84803834977305
C 29.186718412386305 38.39145471599604 306.2372115660659
C 28.893983671422827 34.59364690792847 306.297936022902
C 25.091664307991106 34.73171985068346 306.1024408161205
C 25.44562917775993 36.85425359074312 302.966120894279
C 28.21556525357461 34.67398993647038 301.50754490268395
C 26.07461809643235 31.563000587680502 301.9844298735988
C 23.16190437405764 33.2175513346932 300.17808191333785
C 25.443503402147456 34.62476957684594 297.4779623479715
C 27.265882043208414 31.356910122053677 296.7809100501796
C 23.916168984051303 29.596385627115435 296.33061017701885
C 22.731865460317593 32.29656954152841 293.9142667356284
C 26.076180077713573 32.176908941766584 292.07974676188655
C 25.87071427108649 28.39806862495389 291.6780748925953
C 22.20202597303785 28.603378609810722 290.6470944467218
C 22.964687903405792 31.250982263304092 288.0231772972152
C 25.866379130936114 29.109842459487673 286.80794960684085
C 23.436065700794032 26.283838690152397 286.0057170939349
C 20.853853374132925 28.528642069161855 284.31602490348234
C 22.80054858886273 28.66884648751757 281.0445845252719
C 24.4030836631936 25.222461879210943 281.1363549259532
C 25.154981871356437 22.378421999528832 283.45050269845837
C 28.574143934687648 20.85378097490566 282.8712760107128
C 27.79848294669457 17.13175618105154 283.12784805180286
C 28.928314626802166 14.56623291851103 280.57447596997326
C 27.497903078725624 11.05655268850329 280.329848787088
C 29.43398275545934 8.170344593375617 278.8011013711473
C 27.712986328918003 4.842415032094161 278.11303421706697
C 29.9015407445549 2.0859928486774746 276.69244192082704
C 29.386308146339168 -1.4868193201060669 275.59508846917794
C 32.528709921533064 -3.627637325674379 275.66152961314464
C 33.31925597619105 -7.3291469722107525 276.0828908849637
C 37.1256992342058 -7.4193998226695 275.85715524491195
C 37.57724453599423 -3.90656001602809 277.25970536354396
C 38.79398955706665 -1.9919881362887923 274.1986145889364
C 35.778065221700935 0.3146504431635354 274.214108747517
C 35.95039928996414 0.5293359105357323 278.02099585097005
C 39.57122170609735 1.6794545083091676 277.79548861348485
C 38.54421134657296 4.123624222899243 275.0597311173923
C 35.75725779333762 5.5638510799248815 277.21339123780183
C 37.99255389437946 5.807854712618791 280.2928115230628
C 40.556789819082006 7.709772427612815 278.20894590688675
C 37.90229303923584 10.143141615728117 276.95892092200677
C 36.61990099034173 10.37815585127987 280.53719744725487
C 39.84817561438521 11.82630636781519 281.9533570489977
C 40.32992089453521 14.383872255949624 279.1561504968372
C 36.8390463427027 15.760803100516796 279.80789214996213
C 37.3641061119816 15.54932189371796 283.57593160923955
C 40.417768882857175 17.788868509934918 283.2458339789936
C 38.56876803169423 20.183918370087184 280.92922218163204
C 35.891067972075334 20.992685065311765 283.51607831270513
C 33.112217654376394 18.44885059492307 282.9503129685411
C 31.44370354294402 16.49007175924108 285.74321049221976
C 31.95622719730885 13.161775872176692 283.99234746375043
C 29.662017481513306 10.192534252773088 284.6884426456364
C 30.84171244425068 6.948923819036762 283.0689049407311
C 28.52108428986631 3.9361064306766553 283.0734534269895
C 28.487254359175814 0.4863212095544104 281.50989943954505
C 25.54473943940977 -0.06182674008128673 279.16030911311606
C 24.568795790168103 -3.2313308192851253 281.0469265922815
C 23.745455313167163 -1.1927899689772101 284.17873779074546
C 21.517540778613853 1.5961685151051224 282.79772737904545
C 17.82793289834188 2.016054032332384 282.0345781002929
C 17.01726349145904 3.8330600733363376 278.8018831640588
C 14.068868425978728 5.851548729393946 280.11820938988683
C 15.204097162391006 9.413068277463616 280.7669588940696
C 18.843851406334547 8.313345643832118 280.78551478794935
C 20.245511196510847 11.46972764341535 279.17812743370246
C 18.34831935783189 13.87090592472796 281.4489013067633
C 20.52924027265852 16.214768178101092 283.47774822862436
C 23.462312773711258 15.85939145435525 281.06815583654617
C 24.224888322838993 18.301217395129854 278.2622254942636
C 26.901675297819462 16.07149552776661 276.72424659588745
C 26.34650227691432 12.35892083358468 276.07425735711473
C 28.92769110087619 10.030601980277956 274.52678971125016
C 27.767251304089186 6.586995855412413 273.43886660728043
C 30.44796727342646 3.9860888966012222 272.73857462637244
C 29.89361912311137 0.5166092821596399 271.3430819149163
C 31.955600790216533 -2.188521388044771 269.6577985272338
C 30.81335909351959 -4.088518336394639 266.5696531107277
C 30.271031516314707 -7.8621632680946005 266.60549614540713
C 29.005637159122372 -8.761742739077151 263.15089139458036
C 29.879198266175184 -12.461971134492835 262.90695163166487
C 28.391982792846164 -12.608291987700559 259.41661133748516
C 26.048293813832874 -9.605223123988416 259.76577382686276
C 26.324597605590405 -6.348930174297931 261.741899575689
C 25.61686139828552 -6.433388850208401 265.4682185853325
C 26.09351266337667 -4.128179983980407 268.4321903481038
C 27.88301347719376 -5.2943107419120805 271.5514810812099
C 25.272439361109452 -7.255601288364741 273.44731561718316
C 25.123367697161402 -5.051015217328286 276.5403933285569
C 24.266095780194746 -2.0503799092610415 274.3467470932536
C 21.336601185293294 -3.53698383475415 272.41281019790085
C 18.673188505927637 -2.926936369887318 275.1256747293664
C 19.65520181734132 0.7476824120426778 275.1598030189252
C 19.77542930320972 0.9122718526733891 271.37058093294223
C 16.309078202251968 -0.6164143479553506 271.04691058073644
C 14.803771257617244 1.969979341227718 273.423686963239
C 17.011728347864125 4.906948447060549 272.4664309670317
C 14.023060079724678 7.176528717451296 271.77495421984617
C 13.241220912546634 7.118618496537213 275.52179980531713
C 16.60407718727091 8.585216827273056 276.5555323218372
C 15.856805713232859 12.243688191086944 275.8146559689547
C 18.269330886331993 12.579182797740216 272.877315254752
C 16.290265898224725 15.155376721360403 270.88021762123697
C 18.0119199234091 18.523369897362045 271.0369754329313
C 20.836819204344817 17.163153382749698 273.17840047890394
C 24.534150434565134 17.19282912033088 272.28137240219525
C 25.859858226019625 13.684781421715726 271.5749751584005
C 28.76240695755451 11.928497173086972 269.8839060563053
C 29.680186271689983 8.303357176014407 269.2918433646029
C 32.80909855800311 6.181659575165352 269.5129268680524
C 33.557838815609934 2.5008395662727714 269.1243682282115
C 36.220913501110346 -0.15639823433443334 268.638835783545
C 36.286009470206345 -2.3439032200879164 265.5502694831135
C 38.6060328565333 -3.916688430597796 263.0010454317197
C 38.89640642655793 -3.05532669083862 259.32057431362205
C 39.15547823274377 -6.672645632855268 258.119681443688
C 35.388907772630816 -6.956362788663538 258.6341905041261
C 33.02389738529464 -5.747088569890152 255.95088299443853
C 31.435998468942074 -3.0052278023976107 258.0773315373885
C 34.22054438948379 -1.3526404436275337 260.05967235043397
C 32.66044093855925 -0.037324768781354975 263.27926616566657
C 29.176993513901365 -0.5623281568789077 261.8717717565608
C 27.903591133297905 -0.12575734469790348 265.42926082188166
C 28.772210642712032 3.57985218230562 265.6165560156547
C 27.170417434233006 4.041610062270472 262.1921594812105
C 23.935260740931167 2.4910634087905636 263.44941043088437
C 23.96968219747884 4.5323269901054415 266.6639810894373
C 24.687834898369058 7.823496894401031 264.8831231270659
C 21.95448012129426 7.2351909944864135 262.29204584564513
C 19.407759543497175 6.599583175116724 265.0396222333699
C 20.649612720382105 9.637078981656563 266.9644794164846
C 20.146843994292013 11.715511190793872 263.81553830948263
C 16.655687232847395 10.28379983185518 263.3612554985389
C 15.889470834902323 11.269022143041719 266.97031659501636
C 16.86920103770208 14.907553494142906 266.47686200839524
C 19.980323129514673 14.780762941128938 268.63485415833827
C 22.59129527716307 17.482431290157177 268.02874249498575
C 25.604740509952524 15.432853551208167 266.9388122828334
C 28.600392971247143 17.590830130728985 267.8239895396536
C 31.089938405600417 15.85646426683168 265.51308435673656
C 31.80243961195662 12.680971520228107 263.57909181152246
C 32.20427458822952 9.418790165918153 265.4169846229421
C 35.4751142653307 7.996969658684086 266.6881981660167
C 36.24149218827933 4.687151702974326 264.94792824907756
C 39.20292017108456 2.8246470357270312 266.44841636514593
C 40.89306604049934 0.14752227495116832 264.3433560138315
C 42.68807993078254 -2.6398050231306125 266.1606965297681
C 44.11471840304292 -1.9958232978396926 269.60497103369164
C 42.94951100758518 1.3289024503267002 271.09285878435014
C 46.120105924545484 1.67053613862241 273.16539003221726
C 48.08997738969891 1.9081356846174442 269.8954648300998
C 45.802402523796786 4.751718867448474 268.70797406485366
C 45.67969827139026 6.872480307203064 271.87356632722066
C 46.58435675028404 10.138044004998438 270.1129763129651
C 43.33439680630766 9.952191615118227 268.13829296193927
C 41.17572724544614 9.136359106493027 271.1727009658814
C 42.592018419622235 12.123801866496002 273.0482346527034
C 42.3641751283524 14.27603332743991 269.9241593232182
C 38.722229575512316 13.310829279158744 269.4275544068111
C 37.909104554994194 13.99336146017681 273.08344812352027
C 39.492911018651235 17.425387440103243 272.65829457749675
C 37.18472501695363 18.236441827224592 269.74806698321885
C 34.1050047072688 16.947079462638833 271.5867104130516
C 35.160124476635616 19.04257591198678 274.59518962016944
C 34.03400760098273 22.23114500611848 272.8594245257852
C 30.387109520890395 21.14575170173561 272.80001301319516
C 29.784717926875892 23.439125764758078 275.8041736242762
C 31.632121202999777 26.79718578322932 275.7023988653592
C 34.68501129558036 27.234167395173618 277.92020013446245
C 33.15081462816558 30.182955148829237 279.7650906522692
C 30.117687400550942 28.162222371575325 280.84657748998734
C 32.21899692005284 25.28475465154993 282.15314318717276
C 34.70662618844245 27.65344272639176 283.79723122138563
C 31.924922537320057 29.579417210657724 285.5218089091349
C 30.55348485399649 26.289710406499037 286.86890535700394
C 33.82408842445808 24.988020973871205 288.30198166110466
C 34.51383020179757 28.393015229057465 289.81409944274037
C 31.06579647319817 28.288609116039307 291.40627414399324
C 31.54742959273133 24.666766908974232 292.4858820818656
C 34.98818770647555 25.398908124894444 293.93679884815253
C 33.75237969609324 28.342874537622198 296.00176066237816
C 30.91475577756473 26.408946428910795 297.63063282050445
C 33.394095920966436 23.72202118396447 298.6675528280709
C 35.726060168918025 26.274303821231204 300.2675244577081
C 32.70475958862693 27.698375026264955 302.08557152755884
C 31.32959764589388 24.387744173106046 303.3703119331515
C 34.77035846542461 23.358915392269825 304.63444941340475
C 35.10532681393838 26.71371808164671 306.3836568016314
C 31.73479741465164 26.29382366533727 308.1050802220029
C 32.56851388266272 22.73703636387372 309.1769386275359
C 35.88879913996183 23.63323629193481 310.7960694897527
C 35.43722640533182 27.151391486641664 312.1613660121207
C 31.68557989234933 26.90384853859653 312.7258828072493
C 31.837572997684912 24.899903273851383 315.97154592158006
C 34.358944533843086 27.30290361721158 317.5105279892909
C 32.075892495675134 30.212322159112137 316.5982858465746
C 29.194623968042908 28.428085824319957 318.3259403919993
C 31.390428057880882 28.145366468209872 321.4255287191533
C 32.0471524512356 31.892121265453394 321.31761175987083
C 28.30107020464139 32.47323394431034 320.98280475240887
C 27.771829756754993 30.400107890878303 324.13322361839573
C 30.33805318798331 32.623891830394506 325.8613441386523
C 28.877774211286567 36.0581360915524 325.1086161873945
C 25.145126502547683 35.600474781463404 325.6972949117272
C 25.172910213132724 33.195901385560525 328.63647897979405
C 27.803766214461305 31.371935778793244 330.660120367976
C 29.877596317282514 28.38265584178863 329.5683419735872
C 29.452086599910533 24.748002643424417 330.56841243978886
C 32.06528046237293 22.32321883931994 331.829005901063
C 31.337146958306374 20.309905801388794 328.6811903194194
C 31.721192774087292 23.1971391344017 326.2248284546922
C 35.12521279022372 24.05554792754694 327.7202343342672
C 36.2216395335911 20.463326813167487 326.9440255991573
C 35.02164273890915 20.164044402660547 323.33517627040965
C 36.66705149178919 23.551593305500397 322.7435871547858
C 40.08104151267835 21.862856584514617 322.8818129004476
C 39.03625414339738 19.72288264790668 319.89802941707245
C 36.95054178569282 22.342729307818196 318.0763253797468
C 39.97462567926626 24.657703803144162 318.0445828448135
C 41.93623509369708 21.865229325278225 316.3506215073464
C 39.23315008581052 21.795277597789255 313.668500987675
C 40.184840402342495 25.416828296315728 312.98699935427317
C 43.721727295511414 24.296774971794953 312.1104327435919
C 42.82662073114902 21.524235439219115 309.6671657844043
C 40.780594204320074 24.039885980916065 307.6758432008378
C 44.12390829136396 25.641412313512912 306.8232823666727
C 45.49251261466447 22.19233009462985 305.89062511973617
C 42.77140613212435 20.999401718583524 303.51149101598196
C 42.45323205935543 24.31578328583515 301.6589856199202
C 45.84156516569018 23.79697169392783 299.9436890999811
C 44.55611255918973 20.28711479349015 299.21051325474286
C 41.37098465684097 21.734615614035416 297.6906640299444
C 43.345142676018845 24.137026811074925 295.5034610442783
C 45.40074597214772 21.239440754564363 294.1483202409412
C 42.42024937276727 19.075136516051703 293.1905660984592
C 40.35647304860005 21.73779247185246 291.3890561527765
C 42.793352377199334 24.329480103408343 290.0137310209588
C 44.14004105493906 22.539980634897674 286.95481656891513
C 46.43176966799481 25.471961968328053 286.1642178802839
C 48.07312672225192 25.334620274263738 289.5955506338426
C 49.04993426708482 21.699715767063786 289.0440837724987
C 50.878086945864254 22.634283251414182 285.8431755976824
C 52.61492604486936 25.607097512719825 287.46817531632405
C 53.70091673193513 23.163032920720045 290.1834044856723
C 55.102696266049655 20.688425681827336 287.648420348306
C 56.835781008097825 23.64442662888618 285.9606114551241
C 59.17904142233538 23.631564765066845 288.9645620632433
C 59.28538853476623 19.81260717602211 288.7308258114887
439
Mode 10 - Frame 9
C 49.22544111780692 36.15084858277795 337.3705427516767
C 50.675365793428284 33.98528764679865 338.7146509658143
C 50.534833024145854 30.7341542888883 336.78268284951986
C 50.27096932266374 33.08929907082592 333.8058934057774
C 47.51459106680422 33.98336845217558 331.35797630197385
C 49.03636529672427 32.24200420947431 328.3434350072396
C 47.91611433898443 31.39925537311804 324.82353156311217
C 47.015418152745305 27.71622023799159 324.3608280260706
C 46.73780445447817 27.230322042989883 328.1447174519852
C 43.382729986830576 25.43814908114487 328.11477807967884
C 41.60500647501926 23.411449503854808 330.8173707510214
C 43.19342766265478 20.169566799183496 329.52324512241853
C 41.04961454993986 17.50542485769719 331.15544861318386
C 43.43204009755076 14.520950559157876 330.985019367741
C 42.1536209765893 10.957306336686125 330.6840605619993
C 45.6891531816388 9.6021008877978 330.1366435246486
C 49.226827232551905 10.887472790812748 330.69358374268575
C 52.011858087278874 11.30489738547194 329.6225637300956
C 51.55436325345958 9.427109330567934 326.3384814955712
C 48.75375863801317 11.851067479057885 325.52026676336607
C 50.95086040741566 14.790434486199718 326.51001197535146
C 53.87744777112908 13.367893455606639 324.5145843525256
C 51.99053383451938 11.896532659160554 321.5516072311032
C 49.46033943663009 14.722235420143393 321.15748697005057
C 52.31674054385539 17.223505305251415 321.3778359796087
C 54.35971518196223 15.691840469999356 318.55002575015
C 51.167683195748154 15.005040936241352 316.5915836993611
C 49.82297206190984 18.55203063480613 316.88578543130336
C 53.224452785060706 20.126964326572544 316.2187818148323
C 53.73195323131446 17.974996597817064 313.1110575458973
C 50.25352247814143 18.851493719860873 311.84388680667746
C 50.98544707254935 22.545293285812495 312.3290941768128
C 54.36800096269639 22.567172905866975 310.5930718381651
C 52.88738409254055 20.578564722837193 307.69819883044477
C 50.29829065624749 23.32947428398976 307.2181170331754
C 52.86192529101811 26.141983815670724 307.28523103040214
C 54.91343077927953 24.404663937703287 304.5941803121859
C 51.999854062227854 23.389513445410113 302.37276777541723
C 50.50026047715067 26.890346103636748 302.5147880136336
C 53.99675659078846 28.265526981766318 301.9481755669347
C 54.0698406711557 25.975921284848244 298.9049643840828
C 50.873410382781984 27.554216715882987 297.54869186566947
C 52.31965194082467 31.027220184930194 298.1284728716308
C 55.409814496901255 29.961085994627084 296.1649253975398
C 53.89962755350211 28.674210440438692 292.9104400126693
C 51.720740623367114 31.792129777718092 292.6275817514207
C 54.45543592020371 34.389412007369565 293.1286639056935
C 56.81694969103358 32.179732587288164 291.10297128774096
C 54.762393307422755 32.05396637923747 287.8939576954832
C 53.542758385776196 35.12674577620073 286.01976650887036
C 50.655436375823804 33.318746679390536 284.3148196868766
C 48.945242087203795 33.238681808310645 287.74302060597046
C 49.93626143821981 36.45620150593407 289.5376893923858
C 48.241440677869114 38.33760864006366 286.67971756951175
C 44.964608106748585 36.42808080377966 287.1472492282605
C 42.41019059803206 38.01285156877392 289.5278578638328
C 41.280700352404104 34.52938500451261 290.5880877097375
C 44.703762599507705 33.74924216616984 292.0935070724995
C 44.679078727848314 36.96962771003327 294.0830862900756
C 41.84661495602093 35.11269835903671 295.8520692538732
C 43.70237236049212 31.830771401070905 296.4448849144194
C 46.92166411163125 33.578302636257234 297.4383703029951
C 44.93532226623838 35.71435552443145 299.87834101203475
C 43.39041192698829 32.59580112200504 301.4285908614615
C 46.70676471086024 30.74032312580247 301.54129221008066
C 48.51524365827752 33.62115672632006 303.255642617868
C 45.57751617176976 33.81963558282698 305.67162660378744
C 45.84361060032505 30.0766696637036 306.3219908827682
C 49.599869236371035 30.54336715464046 306.72812901478494
C 49.30052814643971 33.500346706480926 309.1277703339607
C 47.26727840796383 31.281479004684797 311.4465317486068
C 49.25898534843555 28.074811277325217 311.0264130389599
C 52.445289752645905 30.040638846861512 311.7610972587717
C 50.946893225991396 31.483535968323675 314.9538963702646
C 49.84364703645152 27.974928385988385 315.91650231498556
C 53.30480202019458 26.418832103917424 315.6316237589707
C 54.941248255062234 29.480674647716157 317.2012461340433
C 52.64469112812278 29.587488392182596 320.23729840460953
C 52.75743962663612 25.791597887353323 320.5402912167499
C 56.56127482176435 25.60336268261394 320.6459154290186
C 56.73751806400498 28.804609603978875 322.729285718958
C 54.568977615293484 27.3604921709585 325.5314914673092
C 54.519539574300126 23.555253518842203 325.33707268523307
C 58.325204127218356 23.38187479290152 324.8944240204236
C 59.788507424790076 26.497330686250248 326.5310065375481
C 56.88189419439633 27.17742380885348 328.93673075266815
C 57.43766905799743 30.91435800800563 328.515260865231
C 54.89818009652494 33.41059293604178 329.8310064347599
C 52.696743578686295 35.75508451210955 327.82016595003176
C 52.16462905196465 39.366906612596104 328.8385744039359
C 48.983230278456986 41.20768062035683 327.8460748907891
C 50.23890897194382 42.47293862566567 324.4812462759298
C 52.11949013380928 39.31662835920567 323.46751051965714
C 48.951379324126734 37.32813706856298 324.1893376766836
C 46.57245741551691 39.54224529273721 322.2060406707505
C 49.00861172077691 39.68283262051203 319.2819178476868
C 48.920784310220846 35.8862038639089 319.01709917999875
C 45.133578573801024 35.798040453152964 319.38169933116416
C 44.71511563586443 38.75363041416159 317.0348356103833
C 46.80793073174591 36.985966865233806 314.4133476115529
C 44.47065086152946 33.99145481342526 314.52666271599884
C 41.50888221500829 36.37389117126815 314.5573761709004
C 42.975236534223924 38.18473477899329 311.53965546793984
C 43.52460212208594 34.88389940233989 309.71276689823173
C 39.823296365199255 34.02269025769706 309.87846564813987
C 38.73464643470191 37.60379453415038 309.1981700088148
C 40.72404442938572 37.791247695813595 305.9591396792087
C 39.41119744997561 34.33096902297959 305.05116734125494
C 35.814294987727926 35.54448890746759 305.3390640515603
C 36.82813542798967 38.83815663753852 303.7323826697937
C 38.273775870293065 36.90739849398741 300.78733989415997
C 35.08775994592352 34.87190083034595 300.32067373238294
C 33.234497487463514 38.1956494413688 300.36109717032593
C 35.35078924291544 39.66601416786997 297.54960558539995
C 34.90480983520988 36.453538110925834 295.57178076924976
C 31.12329156612142 36.82196520951971 295.8244122067909
C 31.453252189796864 40.33924195282718 294.38666267586956
C 33.55054562533432 39.06628607260926 291.4767568713357
C 30.89366871878752 36.46181311853955 290.7077084984318
C 28.14228150526473 39.07120115651572 290.9954141115516
C 29.951579214274542 41.14964169675372 288.35670405898077
C 30.382488659611862 38.07176103451818 286.156086797027
C 26.648484091754813 37.35196643445823 286.414413043558
C 25.335843798628982 40.89715693293291 285.9357567249695
C 28.01122219686832 42.158576074187685 283.4872606396898
C 29.11639497039777 39.05987489009278 281.55445628507897
C 30.13112236529577 41.079078325182344 278.491167900819
C 32.4340436150253 43.607561427132175 280.1824773413022
C 33.470318456046726 41.45827212876139 283.1674956635642
C 37.048403812568694 41.0018479092303 281.93013670410096
C 37.64411109300103 44.762347991955025 281.73648015774984
C 35.9341043817179 45.54451434306259 285.071142444951
C 37.702520165415564 43.05366257240607 287.3652708015301
C 41.38024952959694 43.607440487644176 286.5380008969712
C 44.694187833768815 42.909219121224304 288.24110559775136
C 45.04497054402806 46.46081500036513 289.64953735836025
C 41.401724526819535 46.419703498699185 290.7583880350889
C 41.77573654813305 43.07173831824635 292.5299923705183
C 44.955158766103985 44.1063557227851 294.3627117318959
C 43.294548024510945 47.24447523122871 295.7351573025688
C 40.22849417737939 45.313846466994505 296.9075304388393
C 42.31154779176212 42.69096476364891 298.71049771528413
C 44.76769795268723 45.18487420920706 300.2108870017513
C 41.842640550580064 47.185622764559874 301.59985538589484
C 40.14798511093969 44.041493283513155 302.87347500153084
C 43.23557141516046 42.90188334422396 304.78115031218965
C 43.71024044036723 46.288287515069484 306.4478721555167
C 40.08164292559089 46.0915757609469 307.57433460680085
C 40.72692181675964 42.51612302510902 308.71427284553124
C 43.953982250883385 43.45023785443712 310.5157676423997
C 42.31743066691439 46.45362219707819 312.1833188036425
C 39.83450500071638 44.23396795217871 314.01707626868085
C 42.58892101372541 42.05618425894291 315.47092911073827
C 44.54571523527802 45.10571571842043 316.61310838302177
C 41.445034320606815 46.79131815784915 318.1282035852089
C 41.42402334130633 44.333567026098905 321.05767518108826
C 45.203864541823975 44.523665605272235 321.26367190068123
C 44.95610571944823 48.30022194586313 321.19802011438856
C 41.91130959877985 49.32281646538621 323.2571943027387
C 39.08202191089172 46.865547268132204 323.9602044726357
C 40.13971479956322 44.88850817136363 327.0419185271114
C 39.32074807685058 43.51657974965257 330.44837587030867
C 42.31744324360914 45.306420289380824 331.9539205056481
C 41.995959692403765 48.634998409796424 330.152795648173
C 38.18641244228916 48.85854426423247 330.3131387653763
C 37.5450672389826 46.93319541110943 333.56368743246804
C 34.80527891828832 45.224583912536914 331.55288762792577
C 33.325313637374116 41.7465504309746 331.84839782006605
C 35.92225431239029 39.193368186730005 330.82158902821345
C 35.41780362141431 36.26769458401423 328.45306501789486
C 35.20831494119457 32.83613659817251 330.06634564708054
C 37.28975514969773 31.398875991403656 327.1918304307505
C 40.00396258178762 33.90847894159712 326.3232376767461
C 42.01445162252702 35.953826021667204 328.84379737057424
C 42.13312982181335 39.74759978942868 328.48298274930227
C 39.237678786102045 39.68624252157952 325.96931274339687
C 36.25339437907201 42.01629047842276 326.2822773892955
C 32.836112355739864 40.393795527702046 325.9958416848848
C 31.3378806408628 43.294629626436056 324.04917639571664
C 34.19501224954958 43.14996177654005 321.5481319767003
C 33.232248449812296 39.56413791896216 320.7031192187703
C 29.630035708955994 40.5788740168679 320.03273685595536
C 30.964012852006576 43.07875988298883 317.4926225840586
C 33.37752246087145 40.49356079076627 316.06920450393346
C 30.840223854638513 37.64865614960149 316.01321619897806
C 28.127088014639096 39.8346323977046 314.5156945576715
C 30.414215840065424 41.1280469652159 311.757635352018
C 31.524057489828838 37.68668859254774 310.5720964076749
C 28.065409109024312 36.16767417394017 311.0984547796355
C 26.45292288458257 38.795096319377386 308.84860483608486
C 29.186949243108895 38.39283339627808 306.23772677719603
C 28.89463995703799 34.59506089329936 306.29898773417295
C 25.092378256119243 34.73256248572502 306.1037763990953
C 25.44577649886682 36.85432991720785 302.9670334113881
C 28.215933892467806 34.6742526050861 301.5086574125838
C 26.075596293018545 31.563044266794577 301.98611557320254
C 23.16252042054964 33.21660943795233 300.1796954108776
C 25.44365622025215 34.62364332268163 297.4791877279048
C 27.266630180061277 31.3560836589791 296.78248735416554
C 23.917210513802164 29.594839105411413 296.3326813396847
C 22.732352093131162 32.29422829550844 293.91591586034576
C 26.076652960237237 32.174815091118774 292.08128749755593
C 25.871863083572933 28.395924090586018 291.6801694497591
C 22.20311745785477 28.600302726847953 290.6493629684705
C 22.965226001106952 31.247574064197288 288.0250051500145
C 25.867324066662647 29.106790008866756 286.8099622299962
C 23.437417678108567 26.280305651485662 286.00822063180385
C 20.854821287954618 28.524418346999383 284.31825275980583
C 22.801617232860316 28.664919764881773 281.04678792343776
C 24.40474078905481 25.21894530899049 281.13896170189787
C 25.156818265203512 22.374950877040384 283.45323413043104
C 28.576016950388013 20.850337868269225 282.87406105482626
C 27.80025373634641 17.128183043629903 283.1302584565875
C 28.929786839251268 14.562770059770372 280.57655299813104
C 27.498999934613703 11.053250673473674 280.33121024457233
C 29.434551671509436 8.16705167310163 278.80179621751824
C 27.71298692640989 4.839468671698431 278.11285790242283
C 29.90099265384068 2.083021234924382 276.6914611011986
C 29.385158354103655 -1.4894495045963734 275.5930741819178
C 32.52719293140539 -3.630799921777045 275.65892788339545
C 33.31710325367511 -7.332593227903951 276.0791370411406
C 37.12348343438909 -7.423359485166728 275.8535646664847
C 37.57552936145511 -3.910949725292179 277.25722706705454
C 38.79263516471845 -1.995747267463686 274.1967084221139
C 35.77718827522899 0.311431565383252 274.21274914597416
C 35.949507743106054 0.5251255689743338 278.0196848883466
C 39.57042533010345 1.6747582306721187 277.7946368675588
C 38.543939880922366 4.119750919092342 275.0595243448598
C 35.757290231330266 5.560011566175912 277.2135052532281
C 37.992529686537196 5.8030535345359535 280.29299457960354
C 40.55706123378788 7.70506225537665 278.20982236698603
C 37.90306691838867 10.139158289774803 276.96032293164757
C 36.62073570871102 10.373822264776376 280.5385873714154
C 39.848998330366 11.82152915503152 281.955045931386
C 40.331279200578116 14.379463654325837 279.15846027372544
C 36.84061769005138 15.75679086450406 279.8103006274456
C 37.36580596152158 15.545199574355822 283.5782946573647
C 40.4196145853237 17.785028234410873 283.24846352282015
C 38.57035154256947 20.179988505838164 280.9319221687376
C 35.892638374116636 20.989202445586272 283.51865347317755
C 33.11395633377702 18.445185921565134 282.952921578226
C 31.445464691481224 16.486135191149987 285.7455176470219
C 31.95752841165221 13.157633711777478 283.9941678794556
C 29.6631093374506 10.188227833107101 284.6895159198614
C 30.84194353580943 6.944600373455706 283.0693024384641
C 28.520949491599087 3.9318624136877327 283.0729528572704
C 28.486456556085695 0.4824174440861656 281.5084615761679
C 25.543920435985758 -0.06480623867133026 279.15867852584387
C 24.567537275960227 -3.234725335180445 281.04439492223617
C 23.744561317826275 -1.1969511042013234 284.1767825346142
C 21.517036391209626 1.5927084711023447 282.796559264329
C 17.827455078222474 2.01325456375411 282.03354762416984
C 17.01703345162525 3.831265551103448 278.8013638127677
C 14.069005290790418 5.849863964942104 280.1182876481411
C 15.204835897503333 9.411011167879801 280.7679659009623
C 18.844426062971678 8.310751954424662 280.78614786122375
C 20.246537769935106 11.46733578278573 279.17956412258974
C 18.349747658713756 13.868156633961233 281.45100345046086
C 20.530977963531683 16.21128192594789 283.480337815355
C 23.46391618154492 15.856183895628655 281.0705527896606
C 24.226685100406645 18.298323377216363 278.2649690413898
C 26.903306566408546 16.068807878114928 276.72655217278606
C 26.347616649764813 12.35652052961763 276.0758631869196
C 28.928491287623743 10.02825931652897 274.5278478170424
C 27.767458844887262 6.585116730213885 273.439090961175
C 30.447750179742105 3.983987181063621 272.7381124644573
C 29.89280537808694 0.5149655760599051 271.3416360764898
C 31.954307093643717 -2.190071973632483 269.6555783878353
C 30.811726321863965 -4.089020140189328 266.56682745954885
C 30.26858267018271 -7.8625494756822105 266.6013225056115
C 29.002899614702287 -8.760661362650644 263.14635084211096
C 29.875430988318158 -12.460967185687764 262.90083507379865
C 28.38818122740904 -12.605525824129392 259.41042224251044
C 26.045221636861235 -9.602110331703656 259.76084506947996
C 26.322342542633322 -6.346835395686618 261.7383201712336
C 25.61472592071744 -6.432541464416269 265.4646689434235
C 26.091916884779913 -4.1283906418094665 268.4293849218722
C 27.881264696234428 -5.295695714552454 271.54831331015816
C 25.27040973818819 -7.257060972328001 273.44363062012104
C 25.121734549485346 -5.0532872017817025 276.5373605071128
C 24.264911564580256 -2.051936678150493 274.3445729065654
C 21.335176357058135 -3.5375964084324165 272.41023991004994
C 18.671869123358075 -2.927944361194818 275.1232851813346
C 19.65445001538003 0.7465162625999945 275.1584130743903
C 19.774667559024376 0.912128857011471 271.3692443994291
C 16.308069574072057 -0.6159591909761157 271.04516629684605
C 14.803169387577546 1.9699802441151986 273.4226954340813
C 17.011565401171865 4.906863290574317 272.4661936077118
C 14.023232273146544 7.177073772342528 271.77539326864394
C 13.241473486399483 7.118285531680934 275.52224560277074
C 16.604598271399173 8.584071026118929 276.5562957431921
C 15.857863119661653 12.242827722662023 275.816375491905
C 18.270365340176294 12.578694055817952 272.87904966854785
C 16.29165283074942 15.155709895217502 270.8826555788625
C 18.0138464342758 18.52339743587089 271.0402106617215
C 20.838531593125268 17.162054059224214 273.18113637836166
C 24.535848346995536 17.191394330240826 272.2839784143443
C 25.861044451783247 13.683392421082567 271.576811845636
C 28.763394381922826 11.927208005079931 269.88535242044713
C 29.680658883507157 8.302161536148281 269.29246207750083
C 32.809269069739564 6.179969966221402 269.51306117866505
C 33.55736510735738 2.4991420908537347 269.12352174369954
C 36.21995577595918 -0.15843495511410052 268.6372695878449
C 36.28465420755838 -2.345087479394851 265.54802876068317
C 38.6043706382009 -3.9175324388478634 262.998290043828
C 38.89494640541553 -3.0550501840901414 259.31810174464306
C 39.1532283869529 -6.671961843623417 258.1159367534537
C 35.38659544908719 -6.95507949390065 258.63029245111227
C 33.021891449317174 -5.744375001451939 255.94734801946188
C 31.43455627750508 -3.002988901614566 258.07473846450034
C 34.21942797708777 -1.3516946523986406 260.0576762495598
C 32.65954757145771 -0.03717946043159908 263.2776811602026
C 29.17603229180729 -0.5610900804897212 261.8699898351545
C 27.902691201965567 -0.1254183115107353 265.42763234516815
C 28.771895503025014 3.5799460522452375 265.6159635527216
C 27.17018066636129 4.042938248376353 262.1916717583325
C 23.934768592517443 2.4925028958737157 263.44847469231604
C 23.969477562981336 4.532793451852617 266.66363227753135
C 24.68810434289377 7.824261864104925 264.8835984986062
C 21.954633956883953 7.237061953447756 262.2923497755602
C 19.407813757398717 6.601043650715839 265.03976985798
C 20.65011039914364 9.637818511354226 266.96541996925146
C 20.147593794065102 11.717149631647446 263.81700074592527
C 16.656225359855178 10.286081229687307 263.36242436158716
C 15.890193238732826 11.270463433636111 266.97174501664654
C 16.87045969054725 14.90897156214447 266.4792280984113
C 19.981620151160307 14.781122940127396 268.6370894770439
C 22.593030564075445 17.482499850304812 268.03155085629663
C 25.606150404465808 15.43268513252898 266.9410494316995
C 28.602167693257787 17.58983234446501 267.8265248751358
C 31.091514470318405 15.855744699366818 265.5153096146675
C 31.80364413316353 12.680710536139605 263.58066117166555
C 32.20500556898131 9.41814376469644 265.4179030957625
C 35.47563372896983 7.995528726393617 266.6888450771889
C 36.24147067728974 4.686096157661619 264.94771286094453
C 39.20253031680443 2.8226520412269807 266.44774259601314
C 40.892189058241975 0.14579496188688584 264.3419419007657
C 42.68659047427369 -2.6423921276688183 266.1585245529468
C 44.113288451829625 -1.999545928447262 269.6030055837244
C 42.948701987728036 1.325016986646136 271.0918597457854
C 46.11931460876098 1.665442950162175 273.1645425947657
C 48.08927910110104 1.9034970459041416 269.8947015332189
C 45.80229752197828 4.747885132019149 268.70801890314254
C 45.67988627757249 6.867826606829087 271.87419714798153
C 46.58521525455539 10.133671601915607 270.11455072094935
C 43.33529726473711 9.94890538072816 268.13967871164976
C 41.17639473810696 9.132803323134974 271.17385035986916
C 42.593153939358196 12.119614865221767 273.05010370359116
C 42.36578455194874 14.27249178218974 269.92646871435124
C 38.72366180031237 13.307995928574112 269.4294968925071
C 37.91054224379081 13.989980393145613 273.08552636870166
C 39.494837918698586 17.421830418430464 272.6609476957571
C 37.18687857016036 18.233669114947215 269.75077375323974
C 34.106883807875455 16.9443662922312 271.5891268333101
C 35.16212945714183 19.03931658677803 274.5978910303671
C 34.036411032702595 22.228166742355082 272.8623341934729
C 30.38942108862416 21.143052856052222 272.80276584676363
C 29.78674067555744 23.436017227538862 275.8068757335712
C 31.63395150738545 26.794074622914913 275.7047851969483
C 34.68684640344765 27.231013333706947 277.92268256114244
C 33.15204646416316 30.18007259233748 279.767053406264
C 30.119012206602857 28.158934792980496 280.8486500812333
C 32.22061413220701 25.281487514564585 282.15549698832695
C 34.7077788505631 27.65080108921206 283.79910042223844
C 31.925800018781526 29.577038917429235 285.52339063346983
C 30.554774807506227 26.28714448001124 286.8709199140895
C 33.825526818236526 24.985965931681367 288.3039054737378
C 34.514886537958574 28.392096762705396 289.81536253577286
C 31.06694169305788 28.287402465185153 291.40774812573534
C 31.549246419005918 24.66559706661018 292.4877665417908
C 34.99010251393727 25.39908695947155 293.938162488208
C 33.753761655105016 28.343317068915468 296.0027326281484
C 30.916470938399822 26.40899247502299 297.6319163071678
C 33.39632067348508 23.722457306108893 298.66879610598886
C 35.72780573118888 26.275645391540007 300.2682882227632
C 32.706299763706184 27.69940755098238 302.0862895306371
C 31.331363422640322 24.388498335543957 303.37112869134813
C 34.77222210510234 23.3602302339896 304.63512904865894
C 35.106842198549685 26.715434889974308 306.3840214394352
C 31.73616111735798 26.29549215435241 308.1053389447076
C 32.56984627227898 22.738782966539244 309.17742206259095
C 35.890206472062374 23.635498614367087 310.79619756711264
C 35.438440244691314 27.153647026320545 312.1614811300303
C 31.686734577831405 26.906390036501534 312.7257131099407
C 31.838159822115987 24.90266090355576 315.9712161285977
C 34.35968993955535 27.30548641271534 317.51037379922974
C 32.07690240449624 30.21497407192352 316.59814223931204
C 29.195164860026225 28.43105399968555 318.325287425177
C 31.390540464093036 28.147972739702535 321.4250248588054
C 32.047670245967446 31.89460713908753 321.31749761343184
C 28.30167900354114 32.476108236524524 320.9824199424787
C 27.77183719720172 30.402943987433808 324.1325582732208
C 30.338181977808812 32.62625661704607 325.86111057414917
C 28.878439651314785 36.06075243161046 325.10854555225
C 25.145689136160243 35.60355707193099 325.69684497468427
C 25.17291413724967 33.19879021218787 328.6358461788992
C 27.80333938402585 31.374254939890363 330.65954694493695
C 29.876783568982237 28.384725008684942 329.5676714557225
C 29.45059685192879 24.750012948626573 330.56721438463063
C 32.06330148888747 22.324607828544586 331.82769449920227
C 31.334999000395115 20.31183292945554 328.67952121920325
C 31.719916909777204 23.19927458868879 326.22365592248497
C 35.12393605111242 24.056966238835457 327.7195248159588
C 36.21942634297773 20.46488590261101 326.9426696315968
C 35.02017238978305 20.165878063589574 323.33372630819537
C 36.66630625977586 23.55318445274873 322.7429933309233
C 40.07999078321032 21.86391176762429 322.88120921041633
C 39.035587464133414 19.724461149503444 319.89711033063605
C 36.95091145024506 22.34501378788915 318.07578670150815
C 39.97512279166237 24.659596054704963 318.04460107649686
C 41.93696780054947 21.867360837791228 316.350506934896
C 39.23441096549785 21.797538114957486 313.6682605681169
C 40.186158521481936 25.419064745315808 312.98704308729305
C 43.723050357962116 24.29901375133247 312.1103701258218
C 42.82821067976491 21.526760027710356 309.66685260524054
C 40.78227272188274 24.042382137613505 307.6758500537136
C 44.125485672218595 25.644147695741438 306.8232263210956
C 45.49441322207926 22.195375003807822 305.8903792750114
C 42.77352991732976 21.00209385906277 303.5113821466303
C 42.45518863318201 24.318458749994537 301.6589862483987
C 45.843550885970046 23.800250790928942 299.9435715734082
C 44.558861042120554 20.290037997965463 299.21057823264476
C 41.37352020572553 21.736861358271707 297.69080982784357
C 43.34723427072174 24.139560517617177 295.50344089443104
C 45.40359788628843 21.242437122573662 294.1483499496739
C 42.423909677057445 19.076878741586462 293.1911532244195
C 40.358987252421166 21.73854452340339 291.38966556581016
C 42.79495405417053 24.331032493332774 290.01374277663365
C 44.14178745258252 22.541161510805946 286.95469347133815
C 46.43208566819841 25.474760737600686 286.1639898338773
C 48.074170099046206 25.338395482774324 289.59513322531467
C 49.052166084653784 21.703749030871982 289.0436430632532
C 50.879481699465806 22.63899099020969 285.84242494164596
C 52.615584849041426 25.612337826769938 287.46738096778586
C 53.702843382284556 23.168494581743158 290.1822504829456
C 55.105113304600046 20.694613158880433 287.6468723091193
C 56.83683949425957 23.651225931727716 285.9588365396598
C 59.18065668952626 23.639101012269485 288.9623959632544
C 59.28843088982981 19.82031638885662 288.728167431652
439
Mode 10 - Frame 10
C 49.224149980748315 36.146481177406116 337.3729082149487
C 50.6722932508428 33.97962928799109 338.7168279399793
C 50.53001997481124 30.72913370223061 336.78405231003404
C 50.268826297367866 33.08533842368143 333.80778048310384
C 47.51346533726059 33.98127914890906 331.35949833978907
C 49.03481271759333 32.23985806505327 328.3447372195865
C 47.91476301123819 31.39842787794878 324.8243781076745
C 47.012966777889055 27.71593232616481 324.3611116227522
C 46.73433506451226 27.22904155205376 328.14492152776165
C 43.37971428980728 25.437062868214273 328.11578139793914
C 41.60205546501843 23.40863769797906 330.8165329402596
C 43.18945551850029 20.166208064267845 329.52089862468785
C 41.04330111468344 17.502794069365905 331.15165340991075
C 43.4163008800755 14.512640128265213 330.96990785267474
C 42.129336159204726 10.953523853928225 330.6556237204771
C 45.6616021292991 9.591631248407465 330.1062770151267
C 49.20136168340496 10.867224537395346 330.6711798013294
C 51.98835673356245 11.28443235631332 329.6053471841609
C 51.53269428140557 9.414940203283717 326.3168913588471
C 48.73688229395657 11.845339397785418 325.5012886282828
C 50.93737243056403 14.779309171757335 326.4994608783538
C 53.86426490785911 13.357799990117536 324.50541259304345
C 51.98065133567918 11.892372313577814 321.53751604096806
C 49.45351415641396 14.72096267389634 321.1453734861548
C 52.31139932089021 17.219705033310465 321.37212859600805
C 54.35634318058708 15.690334814052823 318.54456962074215
C 51.16645982222909 15.006378381295061 316.58178614925754
C 49.82270633876267 18.553547814885665 316.87927790405104
C 53.224948744921704 20.12786158605367 316.21558267001734
C 53.734818436848535 17.97857318210364 313.1066714577593
C 50.25678382403636 18.855741113977064 311.83853250679175
C 50.9883575322215 22.549290379128117 312.32649295366826
C 54.37139834272681 22.57243246003037 310.5914560892817
C 52.89199891611762 20.585309164865407 307.6952306225219
C 50.30210917065926 23.33586918387349 307.21631842953616
C 52.865329436626475 26.148690787864844 307.2845845256475
C 54.917326172713686 24.41309824227881 304.5929124929762
C 52.004069239213074 23.397692984042425 302.37126861887543
C 50.50345584076619 26.897914754776615 302.51418111768044
C 53.99946056335719 28.274241752169736 301.9474446139998
C 54.07316297536964 25.985405464819166 298.90371587035753
C 50.8759664947655 27.56251219121562 297.54800415901485
C 52.32102416479265 31.035962385119166 298.1279835585822
C 55.41108278021496 29.971360111414576 296.1636803694845
C 53.9009125508648 28.68429461689379 292.90923838142044
C 51.720674406451735 31.801148281952987 292.6269932967537
C 54.45423465484992 34.3997463833376 293.1279786988565
C 56.816328339988644 32.191558220212286 291.10172215678034
C 54.761285258952675 32.065145260505325 287.89297800077367
C 53.54009777769905 35.13740793890874 286.0190721285909
C 50.65334099970748 33.32797824930402 284.31438877311905
C 48.94370052386679 33.24657807311259 287.742839949647
C 49.93373466773687 36.464766562150714 289.5375383488762
C 48.23764618406871 38.345600853621946 286.67992163478056
C 44.961871527666176 36.43433206954421 287.1479422015302
C 42.4074019401499 38.017871631715586 289.52912226983915
C 41.27965425896524 34.53346330453686 290.5891527519051
C 44.703068568752634 33.75512137699599 292.0941769926887
C 44.67755176998164 36.97574067154625 294.08379383116005
C 41.84638116064093 35.1174638989937 295.85322535312696
C 43.70332254588619 31.836156259577372 296.44561045989775
C 46.9220517704143 33.585159917663695 297.43878423032766
C 44.9356510813907 35.720403414240565 299.87911518619507
C 43.391984423879364 32.601272730254564 301.4294321043361
C 46.708842108418864 30.746820947289347 301.54162371246395
C 48.516741792566975 33.627848239091286 303.25621101234935
C 45.57943697645813 33.82521139844093 305.67246465104785
C 45.84623821846085 30.08224243224852 306.3222599189206
C 49.60247373063317 30.54950341163014 306.7284751079705
C 49.30289491552218 33.50541190764698 309.1288637517452
C 47.26984631942027 31.28590652844615 311.4470206485738
C 49.26175827547141 28.079477314593788 311.0261078893765
C 52.44776724280563 30.044873265607567 311.7623402611941
C 50.948869726394655 31.485991445077637 314.9554255545344
C 49.8450196989048 27.977348777855145 315.9162785905029
C 53.305713791002475 26.42054584805404 315.63192561856147
C 54.94176250133736 29.480793143491365 317.2040851520223
C 52.64391408040733 29.586282435466444 320.2390598652016
C 52.754807517858275 25.790113919994077 320.5400863659278
C 56.55856804069342 25.60011160415166 320.6476217233077
C 56.73541538439323 28.79972712296904 322.7324788257792
C 54.56495630152195 27.355173154269583 325.5329674457359
C 54.51269640037478 23.54950880431024 325.3365297446481
C 58.3179439095977 23.374018171056193 324.89617425008225
C 59.78300823029642 26.487913385301333 326.53440341914774
C 56.87627101298876 27.16969691514284 328.93907940733504
C 57.434748215441175 30.906547590348882 328.5189926361656
C 54.89673348259141 33.40490728223803 329.8335986625253
C 52.69694531855276 35.751232455019476 327.82283332301756
C 52.16600332235699 39.36307046096831 328.84192051430387
C 48.9855342720203 41.20574222107427 327.84937625412766
C 50.24186754157825 42.47142419391521 324.48497935125005
C 52.12150267347634 39.314605225433304 323.4710411557324
C 48.95259710793117 37.32714133664401 324.191721475096
C 46.574741101436494 39.54284921086763 322.2085404305759
C 49.011149831733775 39.683562841431886 319.284786216765
C 48.922144699437865 35.88699030007206 319.0192360806769
C 45.13495735729468 35.7999143834143 319.38306731810394
C 44.7176086932837 38.75625626080165 317.0367278550227
C 46.81026150688283 36.98909907280808 314.415015265697
C 44.4727384380155 33.99490102302503 314.52749753457465
C 41.51112792087861 36.37765599543185 314.55859423662537
C 42.97736115447249 38.188781806729594 311.54111678356173
C 43.52669405621954 34.88837874660966 309.71377121619173
C 39.825415636139645 34.027009486957084 309.87958630697034
C 38.73628737196389 37.60792562635989 309.19976413488473
C 40.724934527114414 37.795695900207825 305.96055770295237
C 39.41269971561084 34.33526332867125 305.0524934848153
C 35.815520311797 35.547932068821225 305.3407570579534
C 36.8283915407871 38.8416295061506 303.73386837548014
C 38.27379590905838 36.91111795994738 300.7888294242876
C 35.08849666446051 34.87423427887742 300.32249104304645
C 33.234184787592454 38.1972901098137 300.36251899466134
C 35.34901994602087 39.66806926222505 297.5508031398621
C 34.904200988254956 36.45492051208387 295.57349910306516
C 31.12272905605228 36.821431878016135 295.8260740856683
C 31.450726246187696 40.3384156575259 294.3874974980332
C 33.54817226053865 39.065634646695884 291.47785149277314
C 30.892893674623565 36.45923702397278 290.70943329376445
C 28.140199975660902 39.0674280776016 290.996539378114
C 29.947861741352053 41.14582923045735 288.35717755319376
C 30.3809250509749 38.06740145657385 286.15742014180535
C 26.64727851952702 37.345889759269795 286.4159854406199
C 25.33237089102047 40.88999034181456 285.9363149174769
C 28.00682138778051 42.15181904391949 283.48723733667634
C 29.114392703219174 39.05326995759553 281.55557778103264
C 30.12798217988729 41.07200816915005 278.49168933132614
C 32.42858588837253 43.60313028848325 280.18234525664445
C 33.46635607572774 41.455565588463784 283.1680771967894
C 37.04470202178699 41.00195091421284 281.93101855182397
C 37.637485042309734 44.762853321053505 281.7367948562954
C 35.92676367504079 45.54446835719101 285.0710403023722
C 37.69684101781539 43.055927915863116 287.36614066000385
C 41.374058136717984 43.61187145509869 286.5389842938053
C 44.68844899194238 42.91545802044071 288.2418114125945
C 45.03710536136151 46.46744765882704 289.64984694277064
C 41.39406015381958 46.42411095112359 290.7594262260669
C 41.77066390342149 43.07658969257286 292.5310659366797
C 44.949958965146486 44.11285062987346 294.36300572609116
C 43.28815113009103 47.250154790401126 295.7359479016418
C 40.223711423318534 45.31806232304677 296.90936056094904
C 42.308637791256494 42.69615352018147 298.7116155070874
C 44.764238084727225 45.19105453897043 300.2111653255941
C 41.83918581477041 47.190395063192454 301.6016564554623
C 40.14628770907484 44.04574071664189 302.8757571151376
C 43.234983884627525 42.90681115921519 304.7821203502569
C 43.71021894331467 46.292821566346085 306.4490458767437
C 40.082479513567755 46.09563700601011 307.5772551216985
C 40.728627539939936 42.520224747926505 308.71639421929467
C 43.95621901284595 43.45415049670318 310.51712952183664
C 42.321057849386705 46.457321662415325 312.185704289437
C 39.83812553722626 44.23790472559671 314.01966225280466
C 42.592504355759075 42.059565251005324 315.4728129957912
C 44.5500322313674 45.10824453125969 316.6155126818933
C 41.44985923024949 46.79432955040093 318.1310464073517
C 41.42795516254845 44.33601972607027 321.0601182112462
C 45.20789996785453 44.52485779353753 321.2664728521413
C 44.96137128054795 48.301364393383714 321.20141578212355
C 41.91682515264768 49.32453160771703 323.26066380381815
C 39.08649030203907 46.86809114160684 323.9628684014309
C 40.14331657858704 44.89016147033627 327.0443398004308
C 39.32354221762767 43.51795842801686 330.45048803293554
C 42.320711673626114 45.30647211956971 331.95669923008325
C 42.00061246032501 48.635445586985206 330.1561219777569
C 38.19111413820287 48.86028374325257 330.31607678986876
C 37.54872691445699 46.934608452030886 333.56621877426954
C 34.8085620401397 45.22730332375055 331.5547752218326
C 33.32734195705844 41.74971987068781 331.8495245432013
C 35.92357268012208 39.195838664333365 330.82269865600136
C 35.418536435056566 36.27058291442817 328.45386386786396
C 35.20792915523558 32.83871718841734 330.0667617788245
C 37.289240599013226 31.401122253707815 327.19256084745035
C 40.004055334240526 33.910134853915565 326.3241104968075
C 42.01476887232129 35.95455683256999 328.8450671851015
C 42.13481694788525 39.74835082707783 328.4848618386919
C 39.23967445893307 39.68836660651657 325.97080470099286
C 36.25613073590465 42.019304345709095 326.28377250779573
C 32.83842689241987 40.39783712407839 325.9967499093916
C 31.34128877850772 43.29940131156885 324.05032291573934
C 34.198498027458974 43.154256730114156 321.54946128209946
C 33.23481903973727 39.56886415918371 320.70391322280165
C 29.63289354041135 40.58460732881429 320.0334756388972
C 30.96740916904941 43.084235178295174 317.4934609907109
C 33.38006855228891 40.49878566530342 316.06990147587123
C 30.842439015533493 37.65431953340447 316.013912125297
C 28.129315320581274 39.84047671909886 314.51652652937884
C 30.415895275503225 41.13287074434198 311.7581149891146
C 31.525482861878597 37.69136559869454 310.5730712651832
C 28.066892450858404 36.172531283216834 311.09993403819715
C 26.453913256270493 38.798663987858156 308.84971305053836
C 29.187400816143843 38.39553050189819 306.2387346822576
C 28.89592384543772 34.59782706609537 306.30104519188563
C 25.09377494941641 34.7342109286134 306.10638919366
C 25.446064702441305 36.854479234304534 302.9688185642298
C 28.21665505896563 34.67476646243863 301.5108338103624
C 26.07750993430621 31.563129716035846 301.98941329924844
C 23.16372558934582 33.21476680987789 300.1828518883723
C 25.443955177577063 34.62144003706434 297.4815849327881
C 27.268093756596574 31.354466853232108 296.7855730263845
C 23.919248053455956 29.591813652422868 296.3367331452694
C 22.733304090569227 32.289648127154116 293.91914203511686
C 26.07757805804914 32.17071890114388 292.0843016313526
C 25.874110499927546 28.39172874829277 291.68426702188776
C 22.20525272436459 28.594285391767617 290.653800866682
C 22.966278679057655 31.240906620639 288.02858096967475
C 25.86917263989016 29.100818514364345 286.8138995150174
C 23.440062544841492 26.273393984895336 286.0131182909235
C 20.856714813119428 28.516155499600607 284.322611104441
C 22.803707815984872 28.657237936231866 281.0510984206967
C 24.407982616425322 25.212065859542598 281.14406132516973
C 25.160410793674547 22.36816033677253 283.45857761769236
C 28.579681122014918 20.84360213527822 282.8795094232613
C 27.803717923645113 17.121192932037776 283.13497391990126
C 28.93266692140098 14.555995685832663 280.5806162783494
C 27.501145708524255 11.04679095731606 280.333873657316
C 29.435664639248277 8.160609748970815 278.8031555421395
C 27.712988095280394 4.83370472099447 278.1125129789305
C 29.89992042660649 2.077207881198593 276.689542328466
C 29.382909021070635 -1.4945949218937344 275.58913364141654
C 32.524225250897935 -3.636986893356871 275.65383813197155
C 33.31289189294707 -7.339335121379584 276.07179341448244
C 37.11914867584024 -7.4311057539094865 275.846540435137
C 37.572173973734536 -3.9195372924613534 277.25237878752455
C 38.789985573466744 -2.003101237742818 274.1929793971057
C 35.77547270905397 0.3051344902275727 274.210089364
C 35.947763614265696 0.5168888979812305 278.01712025845706
C 39.56886738356801 1.6655709252659998 277.7929706010908
C 38.54340881397277 4.112173593441075 275.0591198367468
C 35.757353689619634 5.552500343852833 277.21372830105946
C 37.992482328851544 5.793661012891106 280.2933526922357
C 40.55759220107458 7.695847768032955 278.2115369816725
C 37.90458085446184 10.131365728326454 276.96306567638027
C 36.62236866425142 10.365344490294445 280.5413064733811
C 39.85060780569139 11.812183516586437 281.95834988389794
C 40.333936448171976 14.370839128124043 279.1629788791684
C 36.84369170932945 15.748941746445192 279.8150123203893
C 37.369131369019875 15.537135100768758 283.5829174770728
C 40.4232253242023 17.777515521830868 283.25360768679013
C 38.57344935729616 20.172300531265385 280.93720414055616
C 35.89571054409443 20.98238941332876 283.5236912472527
C 33.11735770394535 18.438016738660064 282.9580247888351
C 31.44891001791362 16.478434101883142 285.75003112289045
C 31.96007397102821 13.149530423264787 283.99772914996424
C 29.665245329981417 10.179803204979024 284.6916155610775
C 30.842395619116918 6.936142437611679 283.0700800613717
C 28.520685786395752 3.9235598636173563 283.071973595131
C 28.484895817728784 0.47478052643298335 281.50564869094285
C 25.542318223517373 -0.07063501746581194 279.1554886157878
C 24.565075250654374 -3.2413660103377633 281.0394422282748
C 23.74281239903076 -1.2050915130729147 284.1729574764268
C 21.51604966055106 1.5859396036228437 282.7942740871144
C 17.826520321015714 2.0077779768077733 282.031531708675
C 17.01658342580225 3.8277549358703187 278.800347808329
C 14.069273038764774 5.846568068329362 280.11844074438835
C 15.206281081458734 9.406986854272093 280.7699359037142
C 18.845550260993395 8.305677932282753 280.7873863394326
C 20.248546050598943 11.462656597313424 279.1823747101659
C 18.352541836875204 13.86277820962684 281.45511586408924
C 20.534377399848484 16.20446178758947 283.48540381145
C 23.467052920595908 15.849908963883392 281.0752419375365
C 24.230200127740343 18.29266182385924 278.2703362294677
C 26.90649780932167 16.063550041998113 276.7310625618095
C 26.34979669202488 12.351824826484828 276.0790046640612
C 28.930056689118267 10.023676374678178 274.52991778432636
C 27.76786485595464 6.5814406066050495 273.43952986362245
C 30.447325480409123 3.9798756050425617 272.7372083393204
C 29.891213452600425 0.5117500017043708 271.33880758971395
C 31.95177624124617 -2.1931053767771895 269.65123513978347
C 30.80853213850897 -4.090001816544956 266.56129965170663
C 30.26379200424555 -7.863305011732623 266.59315763410666
C 28.997544169689473 -8.758545871136489 263.13746818110315
C 29.86806108072386 -12.459003165457888 262.88886928099555
C 28.380744243186324 -12.600114391608642 259.39831454571004
C 26.039211551793557 -9.596020791093812 259.7512029650629
C 26.317930973791377 -6.342737390341169 261.73131779947346
C 25.610548296198164 -6.430883727657327 265.45772479598986
C 26.08879507076847 -4.128802750709606 268.42389667999726
C 27.877843564435263 -5.29840512988298 271.5421162148504
C 25.266439196606537 -7.259916545060987 273.436421678051
C 25.118539630523383 -5.057731874065732 276.5314274130749
C 24.26259488925613 -2.0549821776587214 274.34031955558015
C 21.332388972418773 -3.5387947833797546 272.4052116682608
C 18.669288021568345 -2.929916289752802 275.11861051998636
C 19.652979268810697 0.7442349300410788 275.15569393256646
C 19.77317736252985 0.9118491152842298 271.3666297453306
C 16.30609639960363 -0.6150687695617243 271.0417539626413
C 14.801991952106974 1.9699820104296442 273.42075571034803
C 17.011246629339702 4.906696699348927 272.4657292628131
C 14.023569134311467 7.17814006061078 271.7762521777001
C 13.241967595415831 7.117634154130339 275.52311771419005
C 16.60561766577886 8.581829500819275 276.55778922072545
C 15.859931718784301 12.241144392411334 275.81973938640147
C 18.272389037268038 12.57773793234067 272.8824426939341
C 16.29436608019224 15.156361681635401 270.88742494366664
C 18.017615258239893 18.523451309323605 271.0465397242794
C 20.841881531079505 17.15990345788645 273.1864886053425
C 24.539169964935642 17.188587457272533 272.2890765434064
C 25.863365059552482 13.680675125809085 271.5804049480613
C 28.76532607547637 11.92468601189387 269.8881819356773
C 29.681583451737247 8.299822511615499 269.29367246257414
C 32.8096026410314 6.176664592351997 269.51332392987206
C 33.55643839417599 2.4958213278368637 269.1218657701108
C 36.21808218284163 -0.1624193822020928 268.6342056467123
C 36.28200291374344 -2.347404240194299 265.5436452461449
C 38.60111884845344 -3.91918356813747 262.9928996917173
C 38.89209017306061 -3.0545092552649193 259.31326466981426
C 39.14882702442818 -6.6706241500303305 258.10861103391727
C 35.38207186163455 -6.952568990513941 258.6226667087062
C 33.01796724639001 -5.739066460537408 255.9404325648778
C 31.4317349253173 -2.9986089507561338 258.0696656484521
C 34.21724394487457 -1.3498444055559675 260.0537712869979
C 32.65779988168381 -0.03689519440423845 263.274580421619
C 29.1741518576371 -0.5586680375905051 261.86650387085797
C 27.900930670618465 -0.12475506251353995 265.4244465639879
C 28.77127899676751 3.5801296895576726 265.6148045203285
C 27.16971747850999 4.045536572481943 262.19071762840656
C 23.93380580493727 2.4953189575470605 263.4466441114451
C 23.96907723749582 4.533705988730286 266.6629498984736
C 24.688631455924526 7.8257583706659215 264.8845284656693
C 21.954934904709884 7.240722101485975 262.2929443521945
C 19.407919815794163 6.60390077212225 265.04005865529626
C 20.651084005716697 9.639265249753105 266.9672599681159
C 20.149060623763255 11.720354905627179 263.8198617033204
C 16.657278095138278 10.290544317318933 263.3647110027595
C 15.891606473879959 11.273283023509839 266.97453943102727
C 16.872921987068576 14.911745721771286 266.48385686895585
C 19.98415750838186 14.781827204440615 268.64146242030137
C 22.596425297535287 17.482633974192648 268.037044840053
C 25.608908574336716 15.43235565587505 266.9454259552912
C 28.605639573411143 17.587880379984696 267.83148473977377
C 31.094597718163413 15.854337012988175 265.5196628760799
C 31.806000532220672 12.68019997421961 263.5837313033828
C 32.20643558311843 9.41687921308818 265.4196998997337
C 35.4766499531944 7.992709837468131 266.6901106264107
C 36.24142859544403 4.6840311994314385 264.94729149817334
C 39.20176764674695 2.8187492430595773 266.4464245046917
C 40.89047342206012 0.1424158276277977 264.3391754781607
C 42.68367665765264 -2.647453267862606 266.15427552511363
C 44.11049104513273 -2.0068284928416866 269.5991605833847
C 42.94711930606362 1.3174158726923717 271.0899053314352
C 46.11776656148891 1.655479170017247 273.1628847569456
C 48.087913042467804 1.894422499247966 269.8932082991934
C 45.80209210742459 4.740385213795064 268.7081066200719
C 45.68025407316463 6.858722595118408 271.8754312196091
C 46.58689474234189 10.125117890745786 270.1176307277341
C 43.337058827241755 9.942476536159974 268.14238964715884
C 41.17770055079632 9.125847161214155 271.176098913812
C 42.59537535116883 12.111423854720444 273.0537601188742
C 42.368933059607386 14.265563474211051 269.93098656514314
C 38.72646365481614 13.30245305842132 269.433296967953
C 37.91335478748482 13.983366027936638 273.08959202977746
C 39.49860750401491 17.41487183400049 272.6661379782787
C 37.19109155596479 18.22824487122393 269.7560689944432
C 34.11055988337534 16.939058529981995 271.5938540646666
C 35.166051790885156 19.032940384512123 274.60317578617406
C 34.04111285464322 22.222340379246045 272.8680263624084
C 30.393943197489598 21.13777311719231 272.80815120186406
C 29.790697769096933 23.429936011093332 275.81216185701885
C 31.63753212307237 26.78798827492084 275.7094535659852
C 34.69043641616262 27.224843058394566 277.92753892054446
C 33.15445629901423 30.1744334609047 279.77089313248564
C 30.12160391832509 28.152503318750988 280.8527046815425
C 32.223777876583966 25.27509603015761 282.1601017182302
C 34.71003379793865 27.645633267073393 283.80275713089736
C 31.927516631553974 29.572386273798656 285.5264849531963
C 30.557298337367445 26.282124770335848 286.87486098244904
C 33.82834074108312 24.981945662506572 288.3076690191606
C 34.516953043321486 28.390299971388135 289.8178335186114
C 31.069182081174063 28.28504189990932 291.4106316691445
C 31.55280066752879 24.663308509606907 292.4914531016998
C 34.99384844258639 25.399436812696603 293.94083017070506
C 33.75646517488838 28.34418279076099 296.00463408012075
C 30.91982629931126 26.40908255481132 297.6344271859684
C 33.40067294616174 23.723310489767286 298.67122832461394
C 35.73122056628322 26.278269899097552 300.2697823726756
C 32.70931280082316 27.70142747413247 302.0876941566137
C 31.33481780321625 24.38997369990237 303.37272651148885
C 34.77586793446115 23.36280245253668 304.63645861584547
C 35.10980673819314 26.71879347386742 306.38473477862107
C 31.738828922418623 26.298756211406427 308.1058450826934
C 32.572452819691755 22.742199836952672 309.1783678042693
C 35.892959629097525 23.63992438488553 310.7964481242374
C 35.440814872805646 27.158059527771062 312.16170633464446
C 31.688993483499196 26.911361956657633 312.7253811319103
C 31.839307823934604 24.90805564131386 315.97057095616873
C 34.3611481731734 27.310539123165718 317.5100721579529
C 32.07887808427689 30.22016199623114 316.5978613011134
C 29.196223004417696 28.436860626910367 318.3240100293158
C 31.390760363826487 28.15307137611735 321.4240391592245
C 32.04868320531671 31.899470241749448 321.317274309301
C 28.30286999390737 32.48173120059075 320.9816671406589
C 27.771851752911942 30.408492229516245 324.1312566616478
C 30.33843392872644 32.63088283782502 325.8606536530325
C 28.87974144844885 36.065870765111455 325.10840736905584
C 25.14678981359668 35.60958694198228 325.6959647650062
C 25.172921813980818 33.20444160985682 328.6346082335451
C 27.80250437769313 31.37879190361609 330.6584251601972
C 29.875193593382406 28.388772909955236 329.5663597248413
C 29.44768246510071 24.75394569904704 330.5648706350734
C 32.059430032554026 22.327325101499657 331.82512901003486
C 31.330796960640363 20.31560296084514 328.67625596645973
C 31.71742094254966 23.20345216766358 326.22136210335435
C 35.12143837251546 24.059740874403378 327.71813678869654
C 36.215096688800855 20.467935941808033 326.94001695876483
C 35.01729595284317 20.16946524566615 323.3308897540732
C 36.66484836596422 23.556297206475477 322.74183163615044
C 40.077935246193995 21.865976017278413 322.8800282145051
C 39.034283242688396 19.727549164602696 319.89531232625075
C 36.95163462323476 22.349482905289804 318.0747328878547
C 39.976095290257476 24.66329785735333 318.04463674305157
C 41.93840119144887 21.871530705492287 316.350282797361
C 39.2368776183798 21.801960353846535 313.66779023648917
C 40.18873715162938 25.423439899762993 312.98712864199
C 43.72563865868567 24.30339346499886 312.1102476269788
C 42.83132108861275 21.531698868061447 309.6662399343454
C 40.785556397736165 24.047265356982813 307.67586345996165
C 44.12857149481539 25.649498910869287 306.8231166794021
C 45.49813137124469 22.201331745021594 305.889898330156
C 42.77768466813606 21.007360480564003 303.51116916604013
C 42.45901626917027 24.32369274769125 301.65898747788816
C 45.847435541025 23.80666567265736 299.9433416567376
C 44.56423788608946 20.29575664885342 299.2107053486025
C 41.37848048784146 21.741254696944893 297.69109505157417
C 43.35132604740243 24.14451719556771 295.50340147538145
C 45.4091770722369 21.24829890293208 294.14840806872513
C 42.43107031277621 19.080287049039985 293.1923018161184
C 40.363905777291926 21.74001575824373 291.39085775760367
C 42.798087407143576 24.334069426292743 290.0137657742038
C 44.14520392191226 22.54347165267882 286.954452656139
C 46.4327038578804 25.480235956498753 286.1635437077864
C 48.076211252062194 25.345780905068125 289.59431665101437
C 49.05653217865451 21.7116392855062 289.042780905871
C 50.88221024924376 22.648200717025105 285.84095643684407
C 52.61687366448196 25.622589428000357 287.46582698755225
C 53.70661247911804 23.179179202994714 290.179992912949
C 55.10984174551793 20.706717690548597 287.6438438874868
C 56.83891020565861 23.664527375249932 285.95536428105396
C 59.18381662898086 23.65384413650908 288.9581584322402
C 59.29438263444187 19.835397884931872 288.72296685593386
439
Mode 10 - Frame 11
C 49.222284126430395 36.14016973113727 337.3763266048327
C 50.6678530430338 33.9714522527623 338.7199739395605
C 50.52306451735343 30.721878327418715 336.78603135152815
C 50.26572935814282 33.07961479385682 333.8105075455441
C 47.511838517461875 33.97825984472653 331.3616978745407
C 49.03256904682573 32.23675661830276 328.34661907907935
C 47.91281017385859 31.39723204407171 324.8256014703038
C 47.009424235035155 27.71551625761377 324.36152145537955
C 46.72932136267071 27.22719108271258 328.1452164427486
C 43.37535623093589 25.435493154857177 328.11723131814387
C 41.59779088697417 23.40457428728271 330.8153221990629
C 43.183715274060226 20.161354272795183 329.51750764238
C 41.03417741216436 17.49899225163112 331.14616886714487
C 43.393555744931966 14.500630517618964 330.94806982591473
C 42.094241564812336 10.948057693895702 330.61452893260116
C 45.62178741743062 9.576501311788222 330.062393615968
C 49.16456078413778 10.837963282118647 330.63880330772673
C 51.95439434202831 11.2548578330144 329.5804671248693
C 51.501379910245475 9.397354294384922 326.2856909145856
C 48.71249386887131 11.837061604886237 325.47386285264184
C 50.91788061931071 14.763231702791424 326.4842132253175
C 53.845214023841194 13.343213671771215 324.49215825500187
C 51.966369890491094 11.886360094566806 321.51715251117616
C 49.4436507739966 14.719123396598206 321.1278679889024
C 52.30368058656523 17.21421316568649 321.36388071383
C 54.35147021742341 15.68815895314758 318.5366848322553
C 51.16469189468976 15.008311156449954 316.56762746560435
C 49.82232233562512 18.555740329602507 316.869873714355
C 53.225665468868236 20.129158238075224 316.2109595061736
C 53.738959016721005 17.983741793127557 313.1003330125598
C 50.261496876209804 18.86187912899162 311.83079487468325
C 50.99256350997591 22.555066678222275 312.32273386132107
C 54.376307981217245 22.580033172736012 310.58912113033153
C 52.89866791259658 20.595055726004198 307.6909411913322
C 50.30762740093212 23.34511061295428 307.21371922262466
C 52.87024885222208 26.158383200413237 307.2836502455261
C 54.9229555027764 24.425286865869115 304.5910803358624
C 52.01016069644932 23.409513439023502 302.3691021504218
C 50.508073540304444 26.90885240102879 302.5133040772243
C 54.003368141456086 28.286835683912663 301.9463882957098
C 54.077964119927984 25.999111289489495 298.90191161208014
C 50.87966039585039 27.57450018920962 297.5470103370016
C 52.323007199822676 31.04859595632831 298.12727644010977
C 55.412915608016974 29.986207493451143 296.16188114843555
C 53.90276953255526 28.698867511425735 292.9075018741772
C 51.72057871473826 31.814181147019983 292.62614290625953
C 54.452498676370794 34.414680847416676 293.12698848939203
C 56.81543041011946 32.20864773685691 291.0999170065207
C 54.75968399051368 32.08130014022475 287.89156221955056
C 53.536252866706896 35.15281609576896 286.0180686623562
C 50.65031291949847 33.34131902088932 284.31376604891653
C 48.941472772297324 33.25798916202673 287.742578878695
C 49.93008316878519 36.47714413819385 289.5373200721389
C 48.23216266657953 38.357150600473396 286.68021653458254
C 44.95791682908233 36.44336592938231 287.1489436344602
C 42.40337198119557 38.02512624969241 289.5309494944477
C 41.278142523284785 34.53935695746802 290.5906918708652
C 44.70206560762433 33.76361757097691 292.0951451110378
C 44.67534512514109 36.98457466446605 294.0848163164019
C 41.846043297114846 35.12435069946671 295.85489606095007
C 43.70469568246261 31.84393805270977 296.4466589637375
C 46.92261198577595 33.595069545798154 297.4393824070244
C 44.93612626035614 35.72914337042058 299.8802339645542
C 43.394256878298165 32.609179887601066 301.4306478053646
C 46.711844207366404 30.756211110942008 301.5421027748138
C 48.51890678373826 33.63751831084266 303.2570324133697
C 45.58221277914908 33.83326914844495 305.6736757340146
C 45.850035454867175 30.090295778857204 306.3226487097646
C 49.6062375501538 30.558371069423487 306.728975255852
C 49.30631519246536 33.51273175599599 309.13044387701603
C 47.273557272217325 31.292304853296898 311.4477271700917
C 49.26576550138799 28.086220321253755 311.02566691011396
C 52.451347525534956 30.0509925295916 311.7641365549505
C 50.95172601635023 31.48953991568607 314.95763541680543
C 49.84700336760086 27.98084654641932 315.9159552806814
C 53.30703141370373 26.423022422385007 315.63236184337364
C 54.94250565143635 29.480964384687137 317.20818788760675
C 52.64279114940211 29.584539677382743 320.2416053957707
C 52.75100379191328 25.787969401806453 320.53979033090314
C 56.55465640395806 25.59541338970085 320.6500875316784
C 56.73237674972107 28.79267132806824 322.7370932639677
C 54.55914500084377 27.347486510787448 325.53510041891815
C 54.50280715931263 23.541206974273525 325.33574512768735
C 58.307451988305395 23.362664371165927 324.8987035505498
C 59.77506120738149 26.47430420917127 326.5393123373434
C 56.86814481349676 27.15853058861076 328.9424735066851
C 57.43052723312237 30.895260561282196 328.52438551127926
C 54.894642944769544 33.39669080233051 329.83734475542605
C 52.697236857857924 35.745665751386845 327.8266880101476
C 52.16798931472585 39.35752674271532 328.8467560617283
C 48.98886383049739 41.202940991997075 327.85414713650545
C 50.24614304423729 42.469235650877174 324.490374111364
C 52.12441104466958 39.311681544434656 323.4761433658518
C 48.9543569576347 37.32570237965017 324.1951663615481
C 46.578041312831886 39.54372194799789 322.2121528957537
C 49.01481771908674 39.68461810186861 319.2889313683538
C 48.92411063177455 35.88812679855687 319.02232416906435
C 45.13694987165863 35.802622446703374 319.38504423009897
C 44.72121147264749 38.76005093717537 317.0394623848756
C 46.8136297680789 36.99362550397828 314.41742523423187
C 44.47575524678456 33.99988122634219 314.5287039516889
C 41.51437324635894 36.383096636590125 314.5603544937392
C 42.98043149610531 38.194630267298656 311.54322856715953
C 43.52971716233361 34.89485195856765 309.7152225810873
C 39.828478247354006 34.033251312726996 309.8812057989552
C 38.73865873126713 37.61389557059271 309.2020678461684
C 40.72622082950917 37.802124111156154 305.9626069243788
C 39.414870677092786 34.34146913677182 305.0544099279006
C 35.81729105812474 35.55290786704198 305.3432036636547
C 36.828761655768915 38.84664823507036 303.7360154057677
C 38.273824867577176 36.91649305283585 300.7909819813704
C 35.08956131476556 34.87760640346252 300.3251172839447
C 33.2337328972213 38.19966108064269 300.3645737084177
C 35.346463091015885 39.67103913025772 297.5525337556394
C 34.903321128357646 36.456918254424735 295.5759823100552
C 31.121916158742593 36.82066114737821 295.8284757082216
C 31.447075942171903 40.33722155760793 294.3887039203323
C 33.54474245196606 39.064693254885334 291.47943335747283
C 30.891773639000508 36.455514245559186 290.7119258384539
C 28.13719190539192 39.061975507297916 290.9981655288469
C 29.942489528651684 41.14031974046669 288.3578618114728
C 30.378665441193462 38.06110132191541 286.15934699155014
C 26.64553631707702 37.33710820462125 286.41825775077314
C 25.327352105746 40.87963372251239 285.9371215753707
C 28.00046166896981 42.142054291201596 283.4872036609113
C 29.111499177054856 39.043725005154286 281.5571984827651
C 30.123444219750215 41.061790910592364 278.49244286353775
C 32.42069879166719 43.596726739668455 280.18215437781606
C 33.460629941249515 41.45165429967595 283.1689175849357
C 37.03935247173882 41.00209976927836 281.93229293192996
C 37.627909571440334 44.763583584718454 281.73724963500075
C 35.91615543700848 45.54440190186275 285.0708926935878
C 37.68863394018468 43.059201620109086 287.3673977141473
C 41.36511080067795 43.61827475651617 286.5404054250607
C 44.68015564869869 42.92447400907211 288.2428314032018
C 45.02573919001529 46.477032678750305 289.650294330912
C 41.38298417752354 46.43048027038545 290.7609265417044
C 41.763333298219514 43.08360053443089 292.5326173738756
C 44.942444603286766 44.12223658185626 294.3634305844243
C 43.27890681865633 47.258362462805124 295.73709041605133
C 40.21679974631531 45.324154761619724 296.9120053159873
C 42.30443247705506 42.70365192146764 298.71323085585976
C 44.75923814337355 45.19998588742663 300.2115675383107
C 41.834193290015016 47.19729163079589 301.6042592259482
C 40.143834751367784 44.051878788034436 302.87905505434463
C 43.23413482962251 42.91393246738149 304.7835221764257
C 43.710187877388655 46.299373836762065 306.4507420505193
C 40.08368848768754 46.10150601239235 307.58147563050966
C 40.73109252298716 42.5261522497195 308.71945986935094
C 43.95945141326246 43.459804753482445 310.51909760772725
C 42.32629958110893 46.462667851905636 312.1891516143669
C 39.84335766470266 44.24359385490461 314.0233993228635
C 42.5976827325716 42.064451206835066 315.4755354449975
C 44.55627082992679 45.11189898167137 316.61898719406923
C 41.456831827333836 46.79868138877334 318.1351546404279
C 41.43363713534365 44.33956418388102 321.0636486949688
C 45.21373166250968 44.526580654490004 321.2705205768512
C 44.96898067402687 48.303015372747275 321.2063229461333
C 41.92479581690164 49.32701020261326 323.2656776662326
C 39.09294768536706 46.87176735651776 323.96671811127544
C 40.148521599153185 44.89255069385544 327.04783884280414
C 39.327580100050014 43.51995079045576 330.453540371749
C 42.32543496324074 45.30654702066646 331.9607148339659
C 42.007336291120694 48.636091813877236 330.16092893947757
C 38.19790867605897 48.86279750770457 330.3203226022314
C 37.55401560262572 46.93665047265689 333.5698768793475
C 34.8133065612901 45.23123321261968 331.55750303079606
C 33.330273132347585 41.75430010694921 331.851152798864
C 35.92547788616396 39.19940881304284 330.8243022067519
C 35.419595442301016 36.274756912640434 328.4550183058489
C 35.207371646338615 32.842446463647256 330.06736314117114
C 37.28849700900466 31.404368383304543 327.19361639081365
C 40.00418937312013 33.912527854045855 326.325371830815
C 42.015227337899795 35.95561294560575 328.8469022256984
C 42.13725505578799 39.749436170288476 328.48757735756584
C 39.242558455441475 39.69143617455738 325.9729607660706
C 36.26008511330982 42.02365976038203 326.2859331407749
C 32.84177168701744 40.4036777356539 325.9980624072449
C 31.346213963094772 43.306296992588464 324.05197978037705
C 34.20353541192578 43.16046347448577 321.55138229443685
C 33.23853386325591 39.57569416663032 320.70506065780114
C 29.637023463819016 40.59289268069062 320.0345432725251
C 30.972317271390004 43.09214766389933 317.49467259304384
C 33.38374797240425 40.506336261617534 316.07090868737595
C 30.845640199709276 37.66250383037925 316.0149178257518
C 28.132534055867215 39.84892249349289 314.5177288324125
C 30.418322269479106 41.13984170768863 311.7588081246277
C 31.527542702525217 37.698124456753604 310.5744800560464
C 28.06903606508405 36.179550412794164 311.1020717515841
C 26.455344467060964 38.80381971442905 308.85131455884414
C 29.18805339558264 38.399428156398635 306.240191230963
C 28.897779224538176 34.60182453129175 306.30401847526525
C 25.09579334568345 34.73659313448427 306.1101650081546
C 25.446481192604228 36.85469501615956 302.9713983330589
C 28.2176972346316 34.67550905049589 301.5139789769933
C 26.080275384988408 31.563253200862434 301.9941789252841
C 23.16546720878674 33.21210398215863 300.1874133926088
C 25.444387208252532 34.618256014148095 297.48504919326507
C 27.27020880749669 31.35213036698215 296.79003220815383
C 23.922192552752612 29.587441494963134 296.3425885104262
C 22.734679845775553 32.28302921180061 293.9238042606234
C 26.07891493993579 32.16479939499949 292.0886574311663
C 25.877358297271332 28.385665954663846 291.690188525417
C 22.208338451174686 28.585589590987098 290.660214183909
C 22.967799930180146 31.231271331906665 288.0337484757181
C 25.871844059098166 29.092188958944597 286.8195893836558
C 23.44388470762509 26.263405763377264 286.0201960200888
C 20.859451193491516 28.504214653046393 284.3289094568137
C 22.806728969722126 28.646136734341358 281.05732762763427
C 24.412667461893033 25.202124195819398 281.15143091776105
C 25.165602446036498 22.3583471579196 283.4662996242081
C 28.58497630768561 20.83386815978599 282.88738299617324
C 27.808724106982712 17.111091347694003 283.14178835337003
C 28.9368289998412 14.546205869346034 280.586488225785
C 27.504246619840824 11.037455860623696 280.33772262140155
C 29.437273016645065 8.151300363979471 278.8051199360023
C 27.71298978444427 4.825375092286547 278.1120145214018
C 29.898370924327573 2.068806858953489 276.686769462205
C 29.379658453887146 -1.502030692571804 275.5834390682028
C 32.519936581889404 -3.6459278400674346 275.64648280543355
C 33.306805950679106 -7.349077999541574 276.0611809567127
C 37.11288440830833 -7.442300079782996 275.83638954348464
C 37.567325019376845 -3.9319473996426018 277.245372418034
C 38.786156583163404 -2.0137286433367247 274.1875904901987
C 35.77299350164994 0.29603443009751995 274.20624564682987
C 35.945243130242645 0.5049858796027533 278.01341404793396
C 39.56661595623051 1.6522941214226414 277.79056263792125
C 38.54264135589818 4.101223411436446 275.0585352719987
C 35.75744539477396 5.5416456894140085 277.21405063303536
C 37.9924138910806 5.7800876459504495 280.2938702097189
C 40.55835951512382 7.682531682894666 278.2140148140567
C 37.906768681184296 10.120104503711222 276.96702928509893
C 36.62472848897004 10.353093047259815 280.5452359153483
C 39.852933698566545 11.79867790172534 281.9631245079548
C 40.337776502846054 14.358375610524327 279.1695088284256
C 36.84813405114366 15.737598790463608 279.8218213052025
C 37.37393699821172 15.525480929150156 283.5895980289598
C 40.42844329287773 17.76665871378464 283.2610416462536
C 38.5779260865058 20.161190447748673 280.94483724957365
C 35.90015021343875 20.97254373074143 283.53097146002966
C 33.12227310868346 18.427656373902362 282.96539956557683
C 31.453888944943607 16.467305065995422 285.7565536592718
C 31.963752622277163 13.137820159230516 284.0028756306663
C 29.66833210598254 10.167628565063906 284.69464980488846
C 30.843048935963267 6.923919663886745 283.0712038236015
C 28.52030469943909 3.911561641743657 283.0705584390257
C 28.48264035586053 0.46374422654230446 281.5015837204519
C 25.540002826377755 -0.07905833086182908 279.1508787973241
C 24.561517316570527 -3.2509626153872118 281.0322849668891
C 23.74028499292423 -1.2168554206622793 284.1674297895809
C 21.51462371150279 1.5761577446561037 282.7909717206114
C 17.825169480096996 1.9998636246225088 282.02861845898906
C 17.015933082277975 3.8226816583684387 278.79887955501204
C 14.069659968030521 5.8418050860531645 280.118661987588
C 15.208369552783594 9.401171218455946 280.7727828037521
C 18.84717486755164 8.298345336521859 280.78917609513525
C 20.25144826700054 11.455894589856797 279.18643636026724
C 18.356579773322622 13.855005714676743 281.4610588154393
C 20.539290009929573 16.194605835798754 283.4927248085706
C 23.47158590031595 15.840840903747191 281.08201834191067
C 24.235279781278635 18.28448017210734 278.2780924866238
C 26.911109553930253 16.055951812084373 276.7375806373141
C 26.352947125386752 12.34503894894566 276.083544490914
C 28.93231888980281 10.017053451275855 274.532909145599
C 27.768451592659424 6.57612814882761 273.44016413247965
C 30.446711736826305 3.973933864139695 272.7359017655686
C 29.888912921434493 0.5071030951224116 271.3347200730335
C 31.948118843418033 -2.1974890232055824 269.6449586038593
C 30.803916144594613 -4.091420461494177 266.5533112789292
C 30.256868893592845 -7.86439685569497 266.5813583749567
C 28.989804882729263 -8.75548872166511 263.12463162646657
C 29.8574106437189 -12.456164910911664 262.87157721581923
C 28.369996872075163 -12.592294195706403 259.38081741153326
C 26.03052622818689 -9.587220644304395 259.73726891984245
C 26.311555705792014 -6.336815260759591 261.7211984976555
C 25.604511106965653 -6.428488090982646 265.4476896355963
C 26.084283659594767 -4.129398299544373 268.4159654849844
C 27.87289960167231 -5.302320573452498 271.5331606380885
C 25.260701268084382 -7.264043204332707 273.4260038563338
C 25.11392257356508 -5.064154980673657 276.52285335112265
C 24.259247004050668 -2.0593833048432884 274.33417293214575
C 21.32836085345931 -3.5405265848605247 272.3979452308278
C 18.66555800709215 -2.9327659728209228 275.1118550504541
C 19.65085385631583 0.7409381195458036 275.15176443299924
C 19.771023842463702 0.9114448535474959 271.36285124357755
C 16.3032449160393 -0.6137819994007009 271.03682271350107
C 14.800290410785557 1.9699845629746378 273.41795256727414
C 17.010785964226336 4.906455954220322 272.465058226436
C 14.024055940770097 7.179680980342113 271.7774934085675
C 13.242681644660664 7.1166928322100445 275.5243780241212
C 16.607090817983973 8.578590216785717 276.5599474823025
C 15.862921102892905 12.238711769944347 275.8246006341128
C 18.27531353233354 12.576356214492316 272.88734603941975
C 16.298287064532918 15.15730359442002 270.8943172715215
C 18.02306167960933 18.523529163191785 271.055686010201
C 20.846722609844146 17.156795570334598 273.1942232418446
C 24.54397011774258 17.184531175243592 272.296443976678
C 25.866718627632302 13.676748294737756 271.5855974298589
C 28.768117613937562 11.921041416732889 269.89227093860285
C 29.682919568312034 8.296442329012025 269.295421620187
C 32.810084693212495 6.171887914256173 269.51370363818484
C 33.55509917787868 2.4910224105007845 269.11947268143723
C 36.21537460676742 -0.16817737701526247 268.62977786907703
C 36.278171463023554 -2.3507522489222743 265.5373105201184
C 38.596419606106686 -3.9215696561936615 262.98510995964057
C 38.8879625605528 -3.0537275455482806 259.3062744925164
C 39.14246650583202 -6.668691015704995 258.0980244541752
C 35.37553471275116 -6.948940999548144 258.6116465584435
C 33.01229628301147 -5.731394955857731 255.9304388692356
C 31.42765771900768 -2.9922793746921634 258.06233479564725
C 34.21408774553207 -1.3471705677650079 260.0481281283504
C 32.65527425166701 -0.03648439448872848 263.2700994670711
C 29.171434395387358 -0.5551678830782067 261.86146621703847
C 27.89838648292443 -0.12379658487011665 265.4198427122654
C 28.770388068221294 3.5803950684111827 265.61312957375276
C 27.16904811421083 4.0492914753556875 262.1893387914889
C 23.932414456627864 2.4993885184025104 263.4439986934396
C 23.96849871716698 4.535024718498055 266.6619637755032
C 24.68939320009251 7.827921009566269 264.8858723842321
C 21.95536981190795 7.24601147256846 262.2938035896962
C 19.4080730834227 6.608029669420506 265.0404760034902
C 20.652490988822155 9.641355967442951 266.9699189962984
C 20.151180375890036 11.724986926879547 263.8239961441015
C 16.658799429113245 10.29699403640429 263.3680154848643
C 15.89364877518634 11.27735768305553 266.9785777088411
C 16.87648031309266 14.915754728935765 266.49054602054497
C 19.987824306493156 14.782844954338671 268.64778186950673
C 22.60133111140067 17.48282779996318 268.04498433280173
C 25.612894474306728 15.431879520957155 266.9517505785267
C 28.610656873884587 17.585059547502407 267.83865236368274
C 31.099053396409545 15.852302730345329 265.52595388256077
C 31.809405823181997 12.679462148473974 263.5881680271861
C 32.20850213216109 9.415051778066644 265.4222965059002
C 35.47811852412941 7.988636190880203 266.69193950310853
C 36.241367781920786 4.6810470768672126 264.94668257633913
C 39.200665493253325 2.8131092122324404 266.44451969809734
C 40.88799411348745 0.13753255655591126 264.3351776519591
C 42.67946582868776 -2.654767247599461 266.14813514917404
C 44.10644844304833 -2.017352708013309 269.5936040776377
C 42.94483213337521 1.3064313136193784 271.08708095858486
C 46.11552943982342 1.6410802631914816 273.1604889742249
C 48.08593891711653 1.881308645882298 269.8910503895157
C 45.801795257737396 4.729546895191213 268.708233381991
C 45.68078558373443 6.845566161068679 271.8772146072514
C 46.58932181196818 10.112756709712352 270.1220817222433
C 43.33960450508724 9.933186052770319 268.1463072875763
C 41.179587613233714 9.115794638385882 271.17934835511284
C 42.5985855686985 12.099586821455768 273.0590440956592
C 42.373483046435446 14.255551203808222 269.9375154238353
C 38.730512684537025 13.294442918723686 269.43878855161717
C 37.91741926442073 13.973807444048765 273.0954674178495
C 39.50405502563343 17.404815810343905 272.6736385848096
C 37.19717984667111 18.220406161533855 269.76372127937907
C 34.11587227162933 16.931388150570967 271.60068550442696
C 35.17172005305959 19.023725975824505 274.6108129184025
C 34.04790757462395 22.213920556817225 272.8762522574949
C 30.400478209629796 21.13014323507905 272.81593371263676
C 29.79641626351845 23.421147893761066 275.8198009656588
C 31.642706559973313 26.779192741859983 275.71619994234163
C 34.69562443294282 27.21592623987589 277.9345569664593
C 33.15793881137212 30.16628421163406 279.77644201647325
C 30.12534926547897 28.143209035172262 280.85856408542514
C 32.2283498823731 25.26585953686734 282.1667561280896
C 34.71329247854835 27.638165118601183 283.80804153164723
C 31.92999735142202 29.565662622618504 285.53095663169404
C 30.56094515321596 26.274870662872914 286.88055631848397
C 33.83240721106675 24.976135871401155 288.31310781237846
C 34.519939401685754 28.387703383508207 289.82140439744876
C 31.07241972183546 28.28163058824162 291.4147987495369
C 31.557937000584324 24.660001258887178 292.4967806412346
C 34.99926177736596 25.399942394304887 293.9446853051176
C 33.76037209865588 28.34543386695992 296.00738191571986
C 30.924675214926406 26.409212731356785 297.63805571945414
C 33.40696252379594 23.724543446719743 298.674743184321
C 35.73615542952122 26.28206264032979 300.2719416059243
C 32.71366701579768 27.704346515380905 302.08972401659327
C 31.33980981461454 24.392105785679234 303.3750355611663
C 34.78113661326342 23.366519629617688 304.6383800064984
C 35.11409086826091 26.723647047093657 306.3857656428436
C 31.742684233950865 26.303473181543385 308.10657651530147
C 32.57621960627151 22.74713764148098 309.17973451912155
C 35.89693828489374 23.646320176081268 310.79681021057814
C 35.44424650703148 27.164436143506297 312.16203178344085
C 31.692257884335586 26.91854700229608 312.72490138219086
C 31.84096682995256 24.91585171119883 315.96963860142426
C 34.363255502890745 27.31784092087044 317.5096362486317
C 32.0817331883303 30.227659194848336 316.5974553103261
C 29.197752155229875 28.445251928521397 318.3221640327444
C 31.391078146407686 28.160439542577024 321.4226147002123
C 32.050147058099114 31.90649803251706 321.3169516069404
C 28.304591123746075 32.48985708599736 320.9805792480012
C 27.771872787731283 30.416510132323186 324.1293756703483
C 30.3387980292721 32.637568304684244 325.85999334494755
C 28.88162270790729 36.07326739632091 325.1082076770806
C 25.148380429971386 35.61830085736149 325.6946927520796
C 25.172932907816186 33.21260858537083 328.6328192478841
C 27.801297689246685 31.38534838288484 330.6568040411329
C 29.87289588004628 28.394622632890012 329.5644641098774
C 29.443470812115454 24.759629014621016 330.56148362421953
C 32.053835294591686 22.331251900318087 331.82142155774807
C 31.324724488343023 20.321051127095238 328.67153726840206
C 31.713813958149476 23.209489291078626 326.21804724820333
C 35.117828914972726 24.063750569362195 327.7161309159325
C 36.20883979772399 20.472343629409934 326.9361835151931
C 35.01313914218647 20.174649171820313 323.3267905790696
C 36.66274152730957 23.560795524406128 322.7401528421034
C 40.07496473846053 21.868959115861728 322.87832152790224
C 39.03239847979783 19.732011732126665 319.89271398533606
C 36.952679698532094 22.35594133814455 318.0732099954999
C 39.97750067219639 24.668647424550315 318.04468828567803
C 41.94047262033481 21.877556685153618 316.34995889062725
C 39.24044223988911 21.808351041396687 313.6671105485407
C 40.192463594273754 25.429762544413617 312.98725227921324
C 43.72937907652041 24.309722698290702 312.11007060085
C 42.8358160179005 21.538836109249868 309.6653545483768
C 40.79030171948873 24.05432221890527 307.6758828336645
C 44.133030893899445 25.657232085117386 306.8229582334603
C 45.503504561200565 22.20993998009651 305.88920330476793
C 42.783688801996306 21.014971406455558 303.5108613824852
C 42.46454768126048 24.331256528110433 301.658989254654
C 45.853049352788496 23.815935977999537 299.943009398431
C 44.572008097214024 20.30402081366909 299.2108890470388
C 41.385648715058245 21.74760362007337 297.6915072354904
C 43.357239175785445 24.151680214315302 295.5033445099312
C 45.41723969279528 21.256769907710016 294.1484920580135
C 42.441418325782124 19.08521247902168 293.19396167458706
C 40.371013660073785 21.742141876351184 291.3925806236548
C 42.802615493558065 24.338458173745078 290.0137990085653
C 44.15014114682455 22.546810096231173 286.95410464809737
C 46.43359721918525 25.488148331683394 286.16289899986214
C 48.07916097311855 25.35645376275171 289.59313659915705
C 49.06284172982831 21.723041688977293 289.04153498076676
C 50.88615334447978 22.66150992260542 285.8388342639831
C 52.61873616377177 25.63740427224467 287.46358129201633
C 53.71205929481783 23.194619815255518 290.17673044232424
C 55.11667493324563 20.72421025071394 287.6394674399657
C 56.84190264227042 23.683749622543505 285.95034643366944
C 59.18838313618194 23.675149792511004 288.95203467064
C 59.302983648803206 19.857192530500324 288.7154513744482
439
Mode 10 - Frame 12
C 49.21992510164022 36.13219008445903 337.3806485212874
C 50.66223922838903 33.961113916789564 338.72395146928
C 50.51427063863933 30.712705259147047 336.78853348039246
C 50.261813856093504 33.07237833144046 333.8139554073837
C 47.50978170723963 33.974442497708985 331.3644787760056
C 49.02973234360032 32.2328354173282 328.34899833942814
C 47.910341175209865 31.39572013516551 324.827148184183
C 47.004945350305334 27.714990216530666 324.3620396123002
C 46.72298247178241 27.224851509356085 328.14558930774587
C 43.36984627830138 25.43350854507961 328.11906447182247
C 41.59239912341073 23.399436862311592 330.8137914426313
C 43.17645780556137 20.155217558743942 329.5132203776936
C 41.02264219196311 17.49418556217099 331.1392346857229
C 43.364798763669214 14.485446604832875 330.9204597140209
C 42.04987099558963 10.941146754011521 330.5625722377965
C 45.5714491399942 9.557372328771828 330.00691124229166
C 49.11803291063865 10.800967882249322 330.59786927000795
C 51.91145523215613 11.217466364157644 329.54901093019953
C 51.46178872826202 9.37512019247698 326.24624377191714
C 48.68165925396227 11.826595879631295 325.43918807444214
C 50.89323685933953 14.742904741844056 326.46493541184674
C 53.82112773412319 13.32477199267233 324.47540061657475
C 51.948313666639834 11.878758764948136 321.4914066256946
C 49.43118036651942 14.716797973492753 321.105735552524
C 52.29392168660903 17.207269723347565 321.3534528051033
C 54.34530926434455 15.685407982846124 318.52671598778164
C 51.16245668004708 15.010754790157279 316.5497264508181
C 49.82183683527695 18.55851235554268 316.85798387043127
C 53.22657163262461 20.13079761272184 316.20511437774553
C 53.74419400772273 17.990276537785313 313.09231923076925
C 50.26745565166603 18.869639504194947 311.82101208200436
C 50.99788118440219 22.562369731106795 312.317981190145
C 54.3825153034066 22.5896428563664 310.5861690102252
C 52.90709961482989 20.607378434762616 307.68551800560164
C 50.31460417392375 23.356794676436 307.2104330102552
C 52.87646853573743 26.17063744837818 307.2824690225622
C 54.930072740731404 24.440697107135804 304.588763914902
C 52.01786220802533 23.42445819974983 302.3663630551236
C 50.51391176013741 26.9226810147674 302.51219522314165
C 54.008308545171595 28.302758361745546 301.94505277824294
C 54.08403427177509 26.016439748553296 298.8996304639951
C 50.884330644833916 27.589656776827844 297.5457538344206
C 52.3255143777683 31.064568750873182 298.1263824206839
C 55.41523287693746 30.00497923889615 296.15960636898643
C 53.905117339562814 28.71729221861498 292.90530638463883
C 51.720457730413735 31.830658774177024 292.62506774608346
C 54.450303855356026 34.43356269186302 293.12573655420516
C 56.81429514527006 32.23025424334007 291.0976347306905
C 54.75765948522029 32.1017249726323 287.889772228247
C 53.531391693860016 35.17229683639006 286.01679996645584
C 50.64648447683223 33.35818593841206 284.31297873030485
C 48.938656195928935 33.272416355711044 287.7422488031676
C 49.925466529390796 36.492793274596195 289.5370441019148
C 48.2252297814287 38.37175310125876 286.6805893803813
C 44.95291685030191 36.45478756026976 287.1502097596259
C 42.39827684971325 38.034298361087295 289.5332596791751
C 41.27623121546609 34.54680838239212 290.59263779973395
C 44.700797550336816 33.7743594236664 292.09636911612944
C 44.67255523429487 36.995743600911894 294.0861090582896
C 41.84561613170002 35.13305777422855 295.8570083593938
C 43.70643175756395 31.853776678767034 296.4479846012896
C 46.92332027361669 33.60759842235946 297.44013868989333
C 44.93672703553375 35.74019341494747 299.8816484511293
C 43.39712997308215 32.61917701332576 301.43218483257834
C 46.7156398015732 30.768083221549826 301.5427084598067
C 48.5216440112884 33.649744313036486 303.2580709217629
C 45.58572226394524 33.8434566704985 305.6752069225506
C 45.85483635209193 30.100477733638613 306.3231402632746
C 49.61099619795906 30.569582568823186 306.72960759956715
C 49.31063949475453 33.52198633903059 309.13244165071666
C 47.27824907991064 31.30039434173848 311.44862043477997
C 49.27083189118394 28.09474559555754 311.02510937408215
C 52.4558741252985 30.058729197614028 311.7664076333841
C 50.95533726228107 31.494026294955926 314.96042937549254
C 49.849511346699 27.985268822410504 315.91554651571164
C 53.30869730186367 26.42615358872814 315.6329133682897
C 54.94344522613384 29.481180887241518 317.21337503156457
C 52.64137141258046 29.582336284822436 320.2448237444161
C 52.74619468987723 25.785258058525795 320.539416049827
C 56.54971086885371 25.58947337377754 320.6532050864728
C 56.728534962904675 28.783750591371117 322.74292736043225
C 54.55179769498429 27.33776818371687 325.5377971656927
C 54.490304058401925 23.530710858541266 325.33475312587706
C 58.29418691064771 23.348309608767497 324.90190137925873
C 59.765013679080745 26.457097944161003 326.5455187488544
C 56.857870749831974 27.144412851308676 328.9467647122901
C 57.425190588222854 30.880990218136965 328.5312037960517
C 54.89199984959367 33.38630259591822 329.84208099122657
C 52.69760545493519 35.738627692872406 327.83156154309756
C 52.17050023167484 39.35051774492651 328.85286970958316
C 48.9930734362058 41.1993993602777 327.86017902746937
C 50.2515486199386 42.466468646384094 324.49719477936776
C 52.128088137611925 39.30798509509875 323.48259415895006
C 48.95658195936058 37.32388308690696 324.1995217779714
C 46.58221381462893 39.54482536132754 322.2167201842211
C 49.01945507855801 39.68595228187742 319.2941721394382
C 48.92659618655421 35.88956368892603 319.0262284808802
C 45.13946903445404 35.80604628765973 319.38754366660885
C 44.725766515209536 38.76484859771635 317.0429196878657
C 46.81788830615714 36.999348331982034 314.42047218996834
C 44.47956943881717 34.0061777645941 314.5302292411247
C 41.51847635515301 36.38997531261727 314.56258001055954
C 42.984313370459894 38.20202455490958 311.5458985236566
C 43.53353931618449 34.90303612778937 309.71705756130814
C 39.83235034803622 34.04114293726903 309.8832533445235
C 38.741656872831044 37.62144345163891 309.2049804594285
C 40.72784711898298 37.81025138499418 305.9651977826785
C 39.417615452987256 34.34931522368852 305.05683291275204
C 35.81952983659963 35.55919883587108 305.34629694025506
C 36.82922959713439 38.85299348176147 303.73872992513026
C 38.273861480223225 36.92328885530103 300.7937034883347
C 35.0909073665116 34.88186982607564 300.32843767574826
C 33.23316156612768 38.20265873105337 300.36717151074413
C 35.34323042473337 39.67479397448394 297.55472179651775
C 34.9022087096175 36.45944402702188 295.57912186215873
C 31.120888401705507 36.8196867022332 295.8315121120209
C 31.442460813551076 40.33571184096962 294.3902292163234
C 33.540406098709234 39.06350304051702 291.4814333303568
C 30.8903575628496 36.45080748657932 290.71507719633684
C 28.133388761562863 39.05508174909127 291.00022149316027
C 29.935697367647183 41.133354017931765 288.3587269284477
C 30.375808586057808 38.053135976658844 286.1617831336816
C 26.6433336270119 37.32600556658933 286.42113066316017
C 25.32100678780487 40.86653970898649 285.93814144383003
C 27.99242099066556 42.12970858258427 283.4871610841871
C 29.10784085288287 39.0316571929925 281.5592475578336
C 30.117706815518076 41.04887309273611 278.49339556448035
C 32.4107270288818 43.588630646498636 280.18191304713775
C 33.453390312165794 41.44670920448635 283.1699800990084
C 37.03258896343128 41.002287968746195 281.9339041478933
C 37.61580317441804 44.76450686692352 281.73782461785436
C 35.90274329852696 45.54431788149456 285.07070606981
C 37.67825762119784 43.06334060855946 287.3689870246623
C 41.35379856299585 43.62637053689823 286.54220218048243
C 44.66967026293336 42.93587304515178 288.2441209910895
C 45.01136878621816 46.489151148770254 289.65085996977575
C 41.368980671243975 46.43853308666964 290.76282341100875
C 41.75406511515057 43.09246443638951 292.53457887685596
C 44.93294409419602 44.13410336759303 294.36396773854756
C 43.267219110975674 47.268739533771864 295.7385349124353
C 40.20806121982068 45.331857513912965 296.9153491154679
C 42.299115641567745 42.713132251389894 298.7152731631086
C 44.752916650055745 45.211277911790745 300.2120760612754
C 41.82788117360249 47.206011054272494 301.6075499437928
C 40.140733443840915 44.05963923451723 302.8832246833833
C 43.23306135792335 42.922936033384175 304.78529452416586
C 43.710148600319215 46.30765796065897 306.4528865459103
C 40.08521700997991 46.108926276352086 307.58681167674706
C 40.734209034313864 42.53364647021635 308.723335812082
C 43.963538180723916 43.46695350662152 310.5215858852742
C 42.332926773252176 46.469427111414525 312.1935101137906
C 39.84997271406832 44.25078669785218 314.02812415096327
C 42.60422982424766 42.07062858671696 315.47897747426305
C 44.56415837426302 45.11651935263645 316.623380066695
C 41.465647375909036 46.80418347674706 318.1403487349387
C 41.44082093021566 44.34404548971663 321.0681123331761
C 45.22110475274942 44.52875889083883 321.2756381698181
C 44.97860133287604 48.30510272823333 321.2125271398033
C 41.93487323526633 49.330143923584316 323.2720167601354
C 39.10111184223831 46.876415244632916 323.9715853513762
C 40.15510237688647 44.89557142138859 327.05226272928945
C 39.332685249279855 43.52246976117026 330.45739948489614
C 42.331406682032 45.30664171913371 331.96579181613737
C 42.01583732112053 48.63690884725639 330.1670064460415
C 38.206499101949355 48.86597569401953 330.3256906400903
C 37.56070216243787 46.939232226887405 333.57450187095645
C 34.81930512339852 45.23620182414302 331.560951836475
C 33.3339790568161 41.76009096145577 331.85321142446844
C 35.92788666386971 39.20392260022835 330.8263295976025
C 35.42093435944938 36.280034154900086 328.45647787737016
C 35.206666780317704 32.84716143663967 330.06812345170016
C 37.287556878123546 31.408472508753814 327.1949509285304
C 40.0043588402842 33.9155533563994 326.32696655241995
C 42.015806982116786 35.95694820356702 328.8492222922853
C 42.14033758850689 39.75080838435427 328.49101062471874
C 39.24620473114091 39.69531707084915 325.9756867082403
C 36.26508468601971 42.029166369920766 326.28866485820396
C 32.846000555958575 40.411062099676364 325.99972181599037
C 31.352440940423847 43.3150152951452 324.05407457669463
C 34.20990424507674 43.16831074514259 321.55381105625526
C 33.243230564754754 39.58432943720256 320.7065113753534
C 29.642244981708508 40.603367962862364 320.0358930961265
C 30.978522651404393 43.102151526212076 317.4962044382216
C 33.3883999129026 40.51588258241789 316.0721821184717
C 30.84968750005639 37.67285134747544 316.0161893464068
C 28.136603546319723 39.859600600018354 314.51924892036067
C 30.42139075071032 41.148655190707224 311.75968446520943
C 31.53014698684823 37.706669772195156 310.5762612093436
C 28.071746265473383 36.18842479302811 311.1047744914634
C 26.457153966174722 38.810338169099005 308.8533393674043
C 29.188878460572383 38.404356013574706 306.2420327651444
C 28.900125005369567 34.60687858047744 306.3077776375607
C 25.098345231318145 34.73960498951 306.1149388213672
C 25.447007766736924 36.85496783207042 302.97465996959846
C 28.219014871388193 34.676447914596444 301.51795545360267
C 26.083771781600216 31.563409324394872 302.00020417058363
C 23.16766916174562 33.20873733314357 300.1931805639635
C 25.444933430464935 34.614230411012976 297.4894291045295
C 27.272882894888156 31.349176315890045 296.7956700118326
C 23.92591532294359 29.581913717293144 296.34999152760054
C 22.736419231646014 32.27466082780994 293.9296987752389
C 26.080605177743667 32.15731528350908 292.0941645276437
C 25.881464531275707 28.37800068287334 291.697675162228
C 22.212239777216496 28.574595372727586 290.6683226274141
C 22.969723268500594 31.21908930635314 288.040281823334
C 25.87522157044839 29.081278495588563 286.8267831613489
C 23.448717119604954 26.250777520140595 286.0291444885725
C 20.862910836118008 28.4891176796297 284.3368725487023
C 22.81054865515665 28.632101335002336 281.06520329801634
C 24.41859057523062 25.189554816230988 281.16074839311244
C 25.172166322168835 22.34594022348632 283.4760626612392
C 28.59167108237717 20.82156136323034 282.89733766064404
C 27.815053492125017 17.098319778307197 283.15040393355196
C 28.94209117177222 14.5338284722677 280.5939122081582
C 27.508167143859048 11.0256533719168 280.34258891862913
C 29.439306509889708 8.139530382923104 278.8076035456687
C 27.712991920076956 4.814843830319189 278.1113843148226
C 29.896411867688855 2.0581853331737596 276.68326368997674
C 29.375548717937065 -1.511431837771164 275.5762393424516
C 32.514514359794774 -3.6572319996340625 275.637183366846
C 33.29911141175192 -7.361396051862725 276.0477634831603
C 37.10496441034378 -7.456453217030249 275.82355563420236
C 37.56119442095534 -3.947637665601802 277.2365141705499
C 38.7813155390582 -2.0271650156250036 274.18077722248347
C 35.769859006277 0.28452910128771025 274.2013859833483
C 35.942056448283346 0.4899367328590611 278.0087282359617
C 39.56376944626911 1.6355080791791714 277.78751821759516
C 38.54167104829915 4.08737894857686 275.0577961989002
C 35.75756133883796 5.527922003344824 277.21445816170166
C 37.99232736428337 5.762926654981531 280.29452451405575
C 40.55932964062967 7.6656959767799915 278.21714757097357
C 37.90953478002992 10.10586678548214 276.972040529083
C 36.62771204720298 10.337603382522042 280.5502039618475
C 39.85587435631194 11.781602570624786 281.96916112957393
C 40.342631535784456 14.342617817052389 279.1777647313802
C 36.85375056384002 15.723257738165247 279.83042999657556
C 37.380012820041465 15.510746402722672 283.5980443408514
C 40.43504044108029 17.752932304880563 283.27044050150994
C 38.583586075650175 20.147143819249806 280.9544878922982
C 35.90576334729538 20.96009570139818 283.5401759312757
C 33.128487721217546 18.414557624946486 282.97472359531946
C 31.460183869568432 16.453234475758162 285.7648001900275
C 31.96840359068737 13.123014714405043 284.00938239565954
C 29.672234758530717 10.152236003546442 284.6984860402798
C 30.843874933267333 6.90846624614406 283.07262461135156
C 28.519822886057767 3.8963921279363722 283.06876923806703
C 28.47978874498748 0.44979088367739406 281.4964443234114
C 25.537075438532415 -0.0897080396444336 279.14505054164
C 24.557018972501005 -3.263095732638509 281.0232359447461
C 23.737089559281376 -1.2317286877582705 284.1604410605164
C 21.51282086488069 1.5637904083775382 282.78679649408275
C 17.82346159369653 1.9898574023660873 282.0249351981025
C 17.01511084418513 3.8162674451689265 278.79702322253223
C 14.070149167922056 5.835783183294305 280.1189417083505
C 15.211010035259422 9.393818431623044 280.7763821778832
C 18.849228879544096 8.289074636762425 280.7914389074194
C 20.255117578356774 11.447345292589413 279.1915715592943
C 18.36168499085709 13.845178844436827 281.4685725690196
C 20.54550108914109 16.1821448229631 283.50198084401256
C 23.47731700773963 15.829376032961385 281.0905858413951
C 24.241702055787016 18.274135999402144 278.2878988272016
C 26.916940244865295 16.046345267481286 276.7458215281232
C 26.35693026079506 12.33645947241084 276.08928425525994
C 28.935179020652228 10.008679999854992 274.53669116401846
C 27.76919341179214 6.569411536778441 273.44096604715406
C 30.445935772533293 3.9664216409441133 272.73424984674466
C 29.886004328840272 0.5012279484299909 271.3295521705414
C 31.943494745994542 -2.2030313265336723 269.6370230948009
C 30.798080081204947 -4.093214073445296 266.54321147143924
C 30.24811591138089 -7.865777288748848 266.5664404124057
C 28.980019997799037 -8.751623526338236 263.10840219723553
C 29.843945152506866 -12.45257646739222 262.8497146244944
C 28.35640882576472 -12.582407016509062 259.3586955487042
C 26.019545256359645 -9.57609449997789 259.7196519184577
C 26.303495368438735 -6.3293278324221305 261.7084045278271
C 25.596878207159012 -6.42545925521045 265.435002046906
C 26.07857982157525 -4.130151259971927 268.4059379681138
C 27.866648882842068 -5.307270921588637 271.5218379815505
C 25.253446727631786 -7.269260595331081 273.4128324637688
C 25.10808516615461 -5.072275801025227 276.5120130489064
C 24.255014227612286 -2.064947709327278 274.3264016732011
C 21.32326804830733 -3.542716124839912 272.3887581759351
C 18.660842099460705 -2.936368865574807 275.10331401917273
C 19.648166668620316 0.7367699175526643 275.14679631367557
C 19.76830111798656 0.9109337399790275 271.35807403282774
C 16.299639746893764 -0.6121551185236908 271.03058806867557
C 14.798139129133943 1.9699877901917149 273.41440851566296
C 17.010203539107742 4.906151576905845 272.4642098260901
C 14.024671416744239 7.181629185950113 271.77906271350116
C 13.243584426755593 7.115502706204931 275.5259714509725
C 16.608953344194187 8.574494746274334 276.5626762015359
C 15.866700621557262 12.235636172535887 275.83074677518727
C 18.27901101090516 12.574609289973083 272.89354540527825
C 16.303244417940796 15.158494467462868 270.9030313346268
C 18.02994766363544 18.52362759488781 271.06724978290276
C 20.852843251047105 17.15286622616797 273.20400224713785
C 24.550039015705 17.179402763142868 272.3057587219723
C 25.87095858900541 13.671783549229426 271.5921623546579
C 28.771646993680356 11.916433505894226 269.89744072017464
C 29.6846088385258 8.292168718537548 269.29763310375847
C 32.810694158289394 6.165848695687762 269.51418370852815
C 33.553405988643895 2.484955074560845 269.11644706713724
C 36.2119513818034 -0.17545728755034945 268.6241797700686
C 36.27332730818053 -2.354985181531836 265.52930144052846
C 38.59047829060068 -3.9245864195186626 262.9752612962689
C 38.88274396436518 -3.0527392194059013 259.2974367170401
C 39.13442481634822 -6.666246927893632 258.08463969856217
C 35.367269707211946 -6.9443540816174965 258.59771363377115
C 33.005126407493506 -5.721695768979372 255.91780370498995
C 31.422502852056564 -2.9842768062693263 258.05306629953066
C 34.210097320116645 -1.3437899985677244 260.04099340672906
C 32.65208106355838 -0.035965014612613644 263.2644341357745
C 29.16799867119821 -0.5507425905006181 261.85509704334123
C 27.89516983209406 -0.122584768652769 265.4140220004128
C 28.76926165523899 3.58073059047644 265.6110119161969
C 27.16820182789565 4.0540388497239785 262.1875955093692
C 23.930655356186776 2.5045337191027617 263.4406540557605
C 23.967767286109233 4.5366920063371055 266.66071700692595
C 24.690356283522334 7.830655263108529 264.8875715186046
C 21.955919670946685 7.252698895797688 262.29488993526337
C 19.408266861753503 6.613249889986025 265.04100366244313
C 20.65426985654685 9.643999290028342 266.97328084150786
C 20.153860407105803 11.730843253848917 263.8292233733672
C 16.6607228721852 10.305148503270155 263.3721933861769
C 15.896230884284831 11.28250933009865 266.98368335796977
C 16.88097915269751 14.920823370787469 266.49900320515593
C 19.992460288821487 14.784131709267314 268.6557716344056
C 22.607533598064965 17.48307285650016 268.05502234061174
C 25.61793390142068 15.431277537155959 266.9597468850217
C 28.61700031457175 17.58149313093347 267.8477144873038
C 31.10468677053673 15.849730759351342 265.5339076869392
C 31.813711178492095 12.678529305428262 263.59377743695546
C 32.211114897999735 9.41274132731128 265.4255794301126
C 35.479975258178015 7.9834858245332505 266.69425177659457
C 36.241290894562795 4.677274210444407 264.94591270824793
C 39.19927202571994 2.805978445156586 266.4421114254185
C 40.88485949020564 0.1313585710496023 264.3301231463497
C 42.67414202081062 -2.664014410868515 266.1403717890213
C 44.10133732668607 -2.030658615258342 269.5865789124477
C 42.94194043008436 1.292543387368408 271.08351006588083
C 46.11270101671619 1.6228755310067848 273.1574599538048
C 48.08344300379799 1.8647286241264678 269.8883221151935
C 45.801419946672475 4.715843862738606 268.70839364879583
C 45.68145757971951 6.828932303979448 271.8794693683109
C 46.59239038884522 10.097128301741995 270.1277091746588
C 43.342823039936185 9.921439969264005 268.15126041321685
C 41.1819734517355 9.103085098135104 271.1834566675943
C 42.60264429003683 12.084621100581794 273.06572469880535
C 42.37923565617527 14.242892555242063 269.9457699479738
C 38.73563192744682 13.284315591022912 269.44573163494186
C 37.92255803745291 13.961722397465069 273.1028957502657
C 39.51094240071929 17.39210184394865 272.68312170285265
C 37.204877354760605 18.21049557510475 269.77339616647606
C 34.12258879577906 16.92169038638494 271.6093225858928
C 35.17888651340874 19.012076074590453 274.6204686477269
C 34.056498230776945 22.20327526171155 272.88665236764507
C 30.408740513655765 21.12049667217303 272.82577324601635
C 29.80364623317539 23.41003695843955 275.8294591937871
C 31.64924867036601 26.768072430732747 275.72472947699816
C 34.7021837125601 27.20465258590783 277.94342997660414
C 33.162341798735845 30.15598100582313 279.7834575453701
C 30.130084558421704 28.131458147035634 280.86597220881515
C 32.234130330982524 25.254181713772166 282.1751693882631
C 34.717412472412654 27.628723037719816 283.81472267081784
C 31.933133759023622 29.557161819709016 285.53661023515525
C 30.56555587169984 26.265699196927635 286.8877570086803
C 33.83754850393607 24.96879047411489 288.3199841520297
C 34.52371509486072 28.384420482415774 289.82591910774477
C 31.076513114609245 28.27731762087121 291.42006724550356
C 31.564430935771135 24.655819857177384 292.503516321353
C 35.00610592957006 25.400581607954063 293.94955940357283
C 33.76531167509136 28.347015619479038 296.01085604134437
C 30.9308057643652 26.409377315319695 297.6426433233001
C 33.41491452166432 23.72610229083106 298.6791870688748
C 35.74239464369928 26.28685785424528 300.27467155365525
C 32.71917210854152 27.70803709861801 302.0922903959545
C 31.346121281982757 24.39480141049522 303.3779549238297
C 34.78779787496357 23.37121930675719 304.6408092466262
C 35.11950735171148 26.72978348521299 306.38706897838966
C 31.747558556340913 26.309436910533755 308.1075012754171
C 32.58098200536965 22.75338057437206 309.18146247515034
C 35.90196855310103 23.654406461188646 310.79726800122444
C 35.44858516848635 27.172498184820217 312.1624432527455
C 31.696385110359692 26.927631152444807 312.7242948281473
C 31.843064333646083 24.925708387547 315.96845981274055
C 34.36591982828664 27.327072682231897 317.5090851225952
C 32.08534293490903 30.23713800421998 316.5969420106956
C 29.199685481234592 28.45586116437231 318.3198301143711
C 31.391479923212945 28.169755214850877 321.4208137374629
C 32.0519978269237 31.915383363210747 321.31654360999164
C 28.306767171424408 32.50013075255974 320.97920381063517
C 27.7718993823372 30.426647275027804 324.12699750766797
C 30.339258366504794 32.64602083064157 325.8591585085262
C 28.884001209624486 36.08261905696198 325.1079552038219
C 25.150391467716158 35.62931797815254 325.69308452897326
C 25.172946933901926 33.222934202710434 328.630557409174
C 27.799772056761963 31.393637828091087 330.654754438426
C 29.869990850072302 28.402018516526937 329.56206745830093
C 29.43814596241824 24.766814507186336 330.5572013806959
C 32.04676179189593 22.33621660504864 331.81673417579714
C 31.31704697968145 20.32793931719751 328.6655713547782
C 31.709253599103178 23.217122107671354 326.21385623210847
C 35.11326542909893 24.06882008080157 327.7135948639316
C 36.200929125911095 20.47791632831808 326.93133684076054
C 35.00788363038523 20.181203279603896 323.3216079368023
C 36.660077822770866 23.56648280846179 322.7380303201377
C 40.07120908545196 21.872730687651657 322.87616374100185
C 39.030015548644116 19.737653816460778 319.8894288678581
C 36.954001001331754 22.36410682194663 318.07128458214726
C 39.97927751554463 24.675410954539327 318.0447534517162
C 41.943091555825156 21.88517541254816 316.3495493709733
C 39.24494903896088 21.81643087389609 313.6662512098964
C 40.19717498599004 25.437756349357038 312.98740859542283
C 43.734108137258445 24.317724833342112 312.10984678432675
C 42.841499017649205 21.547859819587398 309.6642351429502
C 40.796301293809265 24.063244304652283 307.6759073280985
C 44.13866897233223 25.66700924166321 306.8227579081182
C 45.51029795776239 22.2208234878529 305.88832457479185
C 42.79127990944978 21.0245940027547 303.5104722475837
C 42.47154112020164 24.34081951775272 301.658991501043
C 45.86014697074842 23.827656550128165 299.94258931977083
C 44.581832079982505 20.314469308754166 299.2111212994504
C 41.39471160144952 21.75563064925091 297.6920283651774
C 43.364715223786106 24.160736515568715 295.5032724877438
C 45.42743337275642 21.26747991335028 294.14859824680406
C 42.45450145825154 19.091439766606516 293.1960602560454
C 40.38000025218176 21.744829956162217 291.39475886644993
C 42.8083404143095 24.344006926366564 290.01384102721687
C 44.156383346899275 22.551030935460126 286.9536646568347
C 46.43472670793712 25.49815205439125 286.1620838869344
C 48.08289034525076 25.369947600730256 289.5916446436714
C 49.07081898051231 21.737457901538768 289.03995974084614
C 50.89113865299098 22.678336930802118 285.83615117220046
C 52.62109094675464 25.656134879719893 287.46074202884904
C 53.71894577740112 23.2141415896775 290.1726056566927
C 55.125314224690165 20.746326330558627 287.6339342383132
C 56.845686020255776 23.70805256916313 285.9440023015152
C 59.19415663285229 23.70208682087209 288.94429231622075
C 59.313858027313984 19.884747794968323 288.7059494497992
439
Mode 10 - Frame 13
C 49.21717600708098 36.12289098622184 337.385685075825
C 50.65569715754654 33.94906611496373 338.7285866920029
C 50.50402267336646 30.702015404516345 336.79144934158904
C 50.25725091744813 33.06394530456434 333.81797338051547
C 47.507384799070245 33.96999394423877 331.3677195054455
C 49.026426585460094 32.228265837428154 328.3517710155387
C 47.90746392238054 31.393958228904324 324.8289506504935
C 46.99972587245436 27.714377193435052 324.36264344757024
C 46.71559543179655 27.22212508256648 328.1460238267639
C 43.363425243273554 25.43119577585207 328.12120074136277
C 41.58611582026839 23.39344995318904 330.8120075723663
C 43.168000299202305 20.148066125965386 329.5082242046679
C 41.009199598554595 17.488584076379983 331.1311539226469
C 43.33128675435973 14.467751999756196 330.8882842113711
C 41.99816365832524 10.93309307551099 330.5020243929418
C 45.512787321263666 9.53508032770714 329.94225474006123
C 49.063811554244985 10.757855214285286 330.5501667020446
C 51.861416049092036 11.173892136356269 329.5123533868022
C 51.415651060087455 9.349209634504323 326.2002739602649
C 48.64572606986188 11.814399624434357 325.39877974787913
C 50.86451820121513 14.719216674648205 326.4424699708953
C 53.79305872514461 13.303280942690499 324.45587206697337
C 51.927271807751076 11.869900539301367 321.46140360326126
C 49.41664795062882 14.714088036728304 321.0799434706925
C 52.28254913177812 17.199178168042234 321.34130061947803
C 54.33812958456357 15.682202133751252 318.51509877366055
C 51.15985186790669 15.013602483898168 316.52886546514355
C 49.82127105641306 18.561742741870937 316.8441280155132
C 53.227627632486424 20.132708061454867 316.1983027448934
C 53.75029461562667 17.99789181637819 313.0829803531062
C 50.27439972332425 18.878683073952242 311.8096116837382
C 51.00407814761088 22.570880359326686 312.3124426546763
C 54.389749019529155 22.60084152163451 310.5827287507772
C 52.91692551697017 20.621738729637 307.6791980845699
C 50.32273457117613 23.370410724678145 307.2066034156774
C 52.88371665715755 26.184917962321204 307.28109248186763
C 54.93836682912777 24.458655464588976 304.58606446880646
C 52.02683718092926 23.441874108464745 302.363171044589
C 50.5207153420435 26.93879621921502 302.51090301767687
C 54.014065855154655 28.3213138882416 301.9434964301209
C 54.09110813614741 26.03663350519831 298.89697212321994
C 50.88977312942519 27.60731953846201 297.544289566464
C 52.32843612292252 31.0831826809862 298.1253405732435
C 55.4179333112051 30.026854932396816 296.1569554499147
C 53.9078533614552 28.738763490345796 292.9027478662333
C 51.7203167410737 31.84986101204892 292.6238148058843
C 54.44774611601588 34.45556668946919 293.12427760887095
C 56.812972161961966 32.25543343164893 291.0949750756951
C 54.75530022366849 32.125527094542534 287.8876862580723
C 53.525726715738315 35.19499875892794 286.01532148898855
C 50.64202299302419 33.37784183664003 284.31206122688536
C 48.93537389266435 33.28922911657218 287.74186414894945
C 49.92008651884832 36.511030029004075 289.53672249942673
C 48.21715052896498 38.38877015662316 286.6810238770263
C 44.94709011439017 36.4680977821297 287.1516852412821
C 42.39233922739787 38.0449871006196 289.5359518578633
C 41.2740038688323 34.55549191628408 290.59490549208203
C 44.69931981707838 33.78687746455678 292.0977955130677
C 44.66930402906032 37.00875934476659 294.0876155577994
C 41.84511833357484 35.14320458233093 295.8594699308801
C 43.70845489637767 31.865242142579486 296.44952943583183
C 46.92414567835913 33.62219897532166 297.441020025744
C 44.937427150165426 35.753070607851406 299.8832968260697
C 43.40047814020262 32.63082718506294 301.4339760105127
C 46.720063005359115 30.78191841091053 301.5434142961021
C 48.52483384523878 33.66399191071003 303.2592811497289
C 45.589812049520646 33.85532872100267 305.67699129636947
C 45.86043108788911 30.112343296310357 306.3237130962035
C 49.61654169830533 30.582647913506733 306.73034450266124
C 49.315678829629334 33.53277118706373 309.13476976054994
C 47.28371668799022 31.309821444308334 311.44966140268525
C 49.276736019313944 28.104680542109268 311.02445964828115
C 52.46114920796557 30.067745140157612 311.7690542394696
C 50.959545635411324 31.499254506585086 314.9636853211941
C 49.852434025478004 27.990422331147446 315.91507016058426
C 53.31063864817585 26.429802500089245 315.6335560890242
C 54.944540161506985 29.481433188953982 317.21941988081403
C 52.63971691925415 29.579768556613452 320.2485742538587
C 52.74059039258574 25.782098388863933 320.53897988057855
C 56.54394757899574 25.58255116358094 320.65683813558655
C 56.724057928462855 28.773354791877765 322.74972613716216
C 54.543235496465854 27.32644291058455 325.54093982528514
C 54.475733543149 23.518479187736908 325.33359709445637
C 58.27872842417121 23.331581255859515 324.9056279757497
C 59.75330477059429 26.437046586616308 326.55275140371606
C 56.845897847876984 27.127960716101104 328.9517654778735
C 57.418971517732814 30.86436024338534 328.5391494987207
C 54.88891971300595 33.37419667746953 329.84760037369546
C 52.69803500032356 35.730425876405604 327.8372409250917
C 52.173426334084596 39.342349794438164 328.85999426212067
C 48.99797910917615 41.19527211221694 327.86720830444006
C 50.25784801908521 42.4632441118099 324.5051432593403
C 52.13237324569715 39.30367742999909 323.4901116044144
C 48.95917486985663 37.3217629702372 324.2045973717686
C 46.58707624847722 39.546111226399326 322.22204268355586
C 49.024859235286165 39.687507071389824 319.30027948317377
C 48.92949273310595 35.891238172175434 319.0307783789633
C 45.14240474617844 35.810036268004175 319.39045639026443
C 44.73107474375236 38.770439561637225 317.0469486632624
C 46.82285100256879 37.006017441774404 314.42402296631974
C 44.48401431561899 34.01351544884503 314.5320067404145
C 41.5232579217176 36.39799139236334 314.565173521322
C 42.98883712099965 38.210641503712026 311.54900996314217
C 43.53799347130817 34.91257356680784 309.71919595941324
C 39.83686270880609 34.05033945872249 309.88563945610866
C 38.7451507634826 37.63023939087801 309.2083746794891
C 40.729742318882025 37.81972252085618 305.9682170449114
C 39.42081408341677 34.35845867777339 305.05965654330475
C 35.82213880185946 35.56653002978326 305.34990169672375
C 36.82977491360044 38.86038792849567 303.7418932960459
C 38.27390414684822 36.93120835816532 300.79687500226686
C 35.09247599077825 34.88683821469043 300.3323071014023
C 33.23249576422193 38.206152049338456 300.37019886521335
C 35.339463230201915 39.67916969019329 297.5572716346116
C 34.90091235007144 36.46238744149282 295.5827805458835
C 31.11969070285527 36.81855113050983 295.8350505916499
C 31.437082563591783 40.33395248947248 294.39200672325245
C 33.53535272021361 39.06211602167013 291.4837640030131
C 30.88870733549373 36.44532245498614 290.7187496379518
C 28.128956759808574 39.04704809329522 291.00261741554795
C 29.92778210836685 41.12523649835262 288.3597350943554
C 30.372479343846077 38.043853544613825 286.1646220970985
C 26.640766717457176 37.31306708373237 286.424478617724
C 25.313612258039313 40.85128057245997 285.9393299497094
C 27.983050769093122 42.115321484775365 283.487111467311
C 29.103577617024122 39.01759394240941 281.56163545182517
C 30.111020719286937 41.033819286208164 278.49450579655115
C 32.3991064138999 43.579195847094674 280.18163181191824
C 33.44495359500713 41.440946427283976 283.17121830204405
C 37.024707094632326 41.00250728739653 281.9357817818448
C 37.601694958885666 44.765582815805935 281.7384946753464
C 35.887113434406444 45.54421996817968 285.0704885873934
C 37.666165555785675 43.06816398755788 287.370839131053
C 41.340615822740546 43.63580497179431 286.54429603323655
C 44.657451096318795 42.949156936104416 288.24562381507866
C 44.994622205572924 46.503273433596135 289.65151913822933
C 41.35266165540158 46.44791745326284 290.76503393168906
C 41.743264418288454 43.102794003399396 292.53686471852825
C 44.921872655710004 44.14793235160393 294.36459371224817
C 43.25359881595854 47.2808324755054 295.7402182593702
C 40.19787775937454 45.34083393268937 296.91924581930823
C 42.29291965601837 42.72418017403897 298.7176531702071
C 44.74554988436568 45.224437096412935 300.21266866959445
C 41.82052533530895 47.21617225297592 301.61138478883555
C 40.13711932851489 44.068682887340195 302.8880837694564
C 43.231810385394375 42.93342835818502 304.7873599333764
C 43.710102828702766 46.317311882070875 306.4553856381777
C 40.08699827668602 46.11757349674791 307.59303004958497
C 40.73784086742038 42.54237987602007 308.72785265019166
C 43.96830070388178 43.47528432130471 310.5244856048086
C 42.340649785718995 46.47730402886694 312.19858930036884
C 39.857681575923436 44.25916889268752 314.0336302394438
C 42.61185949146459 42.0778274095078 315.4829886503924
C 44.57335014083997 45.121903711772774 316.6284993101575
C 41.47592059420065 46.810595346675704 318.1464016840299
C 41.44919258085689 44.34926778900839 321.0733140434597
C 45.22969699915025 44.53129730320323 321.2816019676722
C 44.98981278813871 48.307535232390904 321.21975721009915
C 41.94661697620239 49.33379581198651 323.2794040367046
C 39.110625959821576 46.881831670938624 323.977257399985
C 40.16277130022186 44.89909163264746 327.05741811481914
C 39.33863454579863 43.525405249052774 330.4618967106143
C 42.338365837233226 45.306752076194044 331.97170828811477
C 42.02574401452105 48.637860978843435 330.17408888124874
C 38.216509973041155 48.86967940020486 330.3319462944324
C 37.568494359143976 46.94224087967392 333.57989161477
C 34.82629556051653 45.24199200615498 331.564970909512
C 33.338297763781696 41.76683934607793 331.8556104481974
C 35.930693738094995 39.20918275173034 330.82869222184456
C 35.42249466939745 36.28618400039736 328.4581787921484
C 35.205845363200275 32.852656040449844 330.06900948119306
C 37.286461294600635 31.413255260079715 327.1965061348984
C 40.00455632920448 33.91907913200538 326.32882496463577
C 42.016482471738534 35.95850424927363 328.8519259868194
C 42.14392982457049 39.752407496935916 328.4950115899013
C 39.250453926286525 39.699839681601325 325.9788633907485
C 36.270910948716285 42.035583509064814 326.291848270923
C 32.850928677378164 40.41966748400389 326.0016556115031
C 31.35969756170531 43.32517518758227 324.05651575204104
C 34.217326178342105 43.177455578701526 321.55664141900877
C 33.248703875841024 39.59439256813981 320.7082019721401
C 29.648329888692437 40.615575355232636 320.0374661159328
C 30.985754104209224 43.113809548446476 317.4979895772592
C 33.39382106166169 40.527007407677175 316.073666114109
C 30.85440403012857 37.68490984854302 316.01767111570786
C 28.14134593567844 39.872044354180844 314.5210203580858
C 30.424966611842848 41.15892600189806 311.76070571057124
C 31.53318189512598 37.716628073729424 310.5783368801288
C 28.074904603264404 36.198766570918444 311.1079241351332
C 26.459262669817562 38.81793446411993 308.8556989823687
C 29.189839951813923 38.41009870242134 306.24417880092153
C 28.90285866605326 34.61276832745103 306.31215838534126
C 25.10131907667296 34.74311486117346 306.1205019947533
C 25.44762141102301 36.8552857586727 302.9784609246806
C 28.22055038218642 34.67754202187393 301.5225894490813
C 26.08784631483213 31.56359126328563 302.0072257030152
C 23.17023521231202 33.20481400154963 300.19990134937433
C 25.44556997168252 34.60953916583296 297.494533243442
C 27.275999148320263 31.345733806163633 296.802240038347
C 23.930253661107713 29.57547190982229 296.3586186494183
C 22.738446228671577 32.26490871371848 293.93656796038954
C 26.082574899969906 32.148593658257504 292.10058223424284
C 25.886249739810783 28.36906794208055 291.7063997303673
C 22.21678619582135 28.561783237083137 290.6777718193076
C 22.9719646349052 31.20489295695095 288.0478954738812
C 25.879157560487727 29.06856396389911 286.83516644549195
C 23.454348581189073 26.2360611700118 286.03957260536237
C 20.866942538014918 28.471524389532153 284.34615235478014
C 22.814999933706076 28.615745152515235 281.07438122725557
C 24.425493087962977 25.174907062979955 281.17160653284077
C 25.1798155491876 22.33148177604251 283.48744003721913
C 28.599472852310477 20.80721961167532 282.9089383500687
C 27.82242945456955 17.083436402744343 283.16044411825095
C 28.948223455029947 14.519404446243328 280.6025637618151
C 27.512735934866573 11.01189931658649 280.3482598684588
C 29.44167624556963 8.125814210452512 278.8104978254786
C 27.71299440884105 4.802571201774972 278.1106499022444
C 29.89412887686605 2.0458075155037143 276.6791782308503
C 29.370759428402106 -1.5223874823349026 275.56784912672634
C 32.50819556173829 -3.6704053260403167 275.6263462462986
C 33.29014456443913 -7.375750920348029 276.0321274018035
C 37.09573482386202 -7.472946605639251 275.8085996107096
C 37.5540501150389 -3.965922350426288 277.226191192994
C 38.77567401800845 -2.0428231206637886 274.1728373664529
C 35.766206215423935 0.2711213418758252 274.1957227641687
C 35.9383428416808 0.4723991776766711 278.0032676150083
C 39.56045225982823 1.6159464291299965 277.7839703958897
C 38.540540298273804 4.071245274322383 275.05693491849206
C 35.757696454499666 5.511929076580056 277.2149330761002
C 37.99222653009609 5.742928057637261 280.2952870090071
C 40.56046017845234 7.646076450832823 278.2207983359132
C 37.91275825920593 10.089274830245976 276.9778803929238
C 36.63118894313875 10.319552468757827 280.5559934854074
C 39.859301258073266 11.761703797190403 281.9761959194238
C 40.348289358750755 14.324254438897235 279.18738576545695
C 36.86029577886268 15.70654536235155 279.84046215338657
C 37.38709329194013 15.493575490995287 283.60788726838814
C 40.442728441776886 17.736936205054356 283.2813934774837
C 38.590181956044056 20.13077455083738 280.96573428933385
C 35.912304624779956 20.945589363913584 283.5509023814294
C 33.135729933158856 18.39929296997658 282.9855893732216
C 31.46751967337559 16.436837283482916 285.7744103021923
C 31.97382360662148 13.10576115777165 284.0169650680908
C 29.67678272298259 10.134298249226648 284.70295660535663
C 30.844837510983346 6.890457572892702 283.0742803293795
C 28.519261403808542 3.878714302740283 283.06668418892247
C 28.476465614188335 0.43353032587701634 281.4904551161336
C 25.533664000877355 -0.10211870043685314 279.138258571476
C 24.551776817667097 -3.2772350866466167 281.0126906475354
C 23.733365753885785 -1.2490612812189397 284.15229673022907
C 21.510719913733162 1.549378106727584 282.7819308849627
C 17.821471304645353 1.9781966299662965 282.0206429021904
C 17.01415264727391 3.808792628167411 278.79485994152657
C 14.070719258056672 5.828765546099641 280.11926768153637
C 15.214087127131583 9.38524984584057 280.78057671618643
C 18.85162252679045 8.278271007069693 280.79407588053
C 20.259393618154068 11.437382350825937 279.1975558744082
C 18.3676343669748 13.833727080291133 281.4773287377437
C 20.552739183517428 16.167623355137994 283.5127673846118
C 23.483995765971628 15.816015421393866 281.10056999515103
C 24.249186267051975 18.26208139572771 278.29932666706196
C 26.92373505295417 16.035150260285324 276.75542506776424
C 26.361572016119258 12.32646136117384 276.0959731018548
C 28.938512080223962 9.998921980422963 274.54109854723174
C 27.770057892297043 6.5615843186339715 273.4419005601264
C 30.445031500893172 3.957667255657109 272.73232477962785
C 29.8826147942711 0.49438133372964904 271.32352974437487
C 31.938106044221986 -2.2094900615110995 269.62777543243294
C 30.791279012314643 -4.095304262949343 266.53144163928846
C 30.237915604933818 -7.867385979345752 266.5490557330014
C 28.968617161323337 -8.747119212738916 263.08948919734485
C 29.828253113668318 -12.448394667100615 262.82423700717044
C 28.340573967081443 -12.570884971191497 259.33291578878095
C 26.00674855747323 -9.56312862401053 259.699121908405
C 26.29410223715167 -6.3206023418758015 261.6934950478619
C 25.587983191126508 -6.42192959499795 265.42021653842653
C 26.07193284180142 -4.1310287240084795 268.39425237999
C 27.859364594351696 -5.313039820323443 271.5086430996593
C 25.244992633477665 -7.27534069303366 273.3974831534144
C 25.101282531006795 -5.0817394163030585 276.4993802796505
C 24.25008155258246 -2.0714321999337635 274.3173454200526
C 21.317333136985965 -3.545267709914238 272.37805202196574
C 18.655346406466933 -2.9405675043125115 275.0933607101936
C 19.645035148721007 0.7319124944900135 275.14100670524954
C 19.76512818522316 0.9103381126943616 271.35250690011446
C 16.295438455358205 -0.6102592294316598 271.0233225120609
C 14.7956321284833 1.969991551036003 273.41027844757605
C 17.009524808756385 4.905796870154704 272.46322114094164
C 14.025388662980438 7.183899531501183 271.78089150634503
C 13.244636485791041 7.114115790332281 275.5278283543446
C 16.611123843076722 8.569722080998721 276.56585612030125
C 15.871105091675599 12.232052018551059 275.8379091937674
C 18.283319875426834 12.572573507767133 272.9007698494737
C 16.309021480283928 15.159882253897534 270.91318628661014
C 18.03797225977366 18.523742302474236 271.0807256500285
C 20.859975953297713 17.14828715658173 273.2153982317661
C 24.557111418860135 17.173426357188013 272.31661368022293
C 25.875899637014214 13.665997872486301 271.5998128037426
C 28.775759963874155 11.911063667192744 269.90346533613064
C 29.68657743316418 8.287188457476859 269.30021026084444
C 32.81140439971371 6.158810879477589 269.5147431595243
C 33.551432826966035 2.477884491711927 269.11292116107427
C 36.20796211930694 -0.1839409467840839 268.6176560134764
C 36.26768216202582 -2.359918038556081 265.51996804258505
C 38.583554565932616 -3.9281020110791336 262.96378413545074
C 38.87666246219275 -3.0515874714327187 259.28713759658194
C 39.125053416395545 -6.663398704961636 258.06904174512584
C 35.35763806541887 -6.939008707046042 258.58147687035495
C 32.996770977801134 -5.710392800910779 255.90307928944858
C 31.41649561688551 -2.9749509961282845 258.0422652378578
C 34.205447069367146 -1.339850445059809 260.0326789437049
C 32.64835987500087 -0.035359754168741334 263.2578320298921
C 29.163994842703158 -0.5455855663782897 261.8476747132196
C 27.891421301203845 -0.12117257604513447 265.40723882146887
C 28.767948987473048 3.58112159182918 265.6085440994578
C 27.167215606337354 4.059571212546493 262.1855639718413
C 23.928605384744387 2.510529689687802 263.4367563751238
C 23.966914911369603 4.538634983768336 266.65926408251136
C 24.691478614846723 7.833841631292502 264.8895516084614
C 21.956560450347574 7.260492098688725 262.29615591038174
C 19.40849268174367 6.619333285130698 265.0416185709268
C 20.65634286383526 9.647079691628221 266.97719857497674
C 20.15698358718621 11.737667936944955 263.8353149361155
C 16.662964360662194 10.314651328585024 263.37706211236207
C 15.899239950617492 11.28851281294307 266.98963323704663
C 16.886221885004566 14.926730123355437 266.50885880323926
C 19.99786284069319 14.785631231861624 268.6650825239327
C 22.61476167909811 17.483358433657017 268.0667201543741
C 25.623806608531844 15.43057601405221 266.96906539781173
C 28.624392656675393 17.577336999795516 267.8582750523498
C 31.111251635063685 15.846733507480337 265.54317666979733
C 31.81872843346452 12.677442214799846 263.600314374567
C 32.21415969022978 9.410048838606873 265.4294051928295
C 35.48213900715269 7.977483834150835 266.6969463894221
C 36.241201293716536 4.67287749252992 264.9450155408296
C 39.19764814536462 2.7976685905704457 266.4393049397274
C 40.8812065502937 0.12416370390156602 264.3242328674818
C 42.667937909971926 -2.6747906122620972 266.1313247407468
C 44.095381076356844 -2.0461646825813506 269.57839212124395
C 42.93857057750082 1.2763590629582922 271.0793487184693
C 46.10940490782929 1.6016606076156252 273.1539300784125
C 48.08053438590092 1.8454070604909762 269.8851427149063
C 45.80098257712431 4.699875004709868 268.7085804160578
C 45.68224069167074 6.8095480032236155 271.8820969589097
C 46.59596636143882 10.078915703256442 270.1342671383063
C 43.34657376637146 9.907751645854223 268.1570325487224
C 41.18475379371064 9.08827400835792 271.1882442982871
C 42.60737412958541 12.067180765914209 273.07350995389805
C 42.385939472177135 14.228140772197847 269.95538937524435
C 38.7415976480655 13.272513688135833 269.4538227718692
C 37.928546517541285 13.947639062711744 273.1115523732545
C 39.51896861793195 17.37728559615459 272.69417287464415
C 37.213847662193025 18.19894625211984 269.78467081674273
C 34.13041591148974 16.910389076253892 271.6193878271588
C 35.18723796322688 18.998499837396327 274.6317209724425
C 34.066509370205786 22.190869744406932 272.89877215814005
C 30.41836900723463 21.109255029562583 272.8372397671788
C 29.8120716937005 23.39708880631852 275.8407144304891
C 31.656872532633766 26.755113352496572 275.734669388361
C 34.70982758302026 27.191514809265783 277.95377015785823
C 33.167472829429734 30.14397414300611 279.79163310689904
C 30.135602842129238 28.11776422453969 280.8746052811722
C 32.24086658907032 25.240572937777767 282.18497379890965
C 34.72221371602979 27.61771968867194 283.82250855056776
C 31.936788778296435 29.547255390948706 285.54319867397965
C 30.57092898229665 26.2550112095714 286.89614834832366
C 33.84353992052201 24.960230499756314 288.32799750907503
C 34.528115106936845 28.380594746641687 289.8311803349956
C 31.081283358588927 28.272291495168098 291.4262068984897
C 31.571998656960194 24.650947051796848 292.5113657605126
C 35.014081776905485 25.40132651694038 293.9552394445797
C 33.77106802100188 28.348858918143165 296.01490462103385
C 30.937950013199526 26.409569113591104 297.6479894972044
C 33.424181399302114 23.72791889313341 298.6843657591961
C 35.749665525218745 26.292445966985923 300.27785290405285
C 32.72558748008541 27.712337927646946 302.09528113160434
C 31.353476363911128 24.39794276261083 303.38135700932185
C 34.79556059046104 23.376696085512634 304.64364016677854
C 35.1258194622269 26.73693459643372 306.3885878232417
C 31.753238858310727 26.316386754803517 308.1085789465858
C 32.58653187729307 22.760655789501662 309.18347615238554
C 35.90783058686081 23.663829830746163 310.79780148852825
C 35.45364123684547 27.181893301821443 312.1629227593752
C 31.701194781989635 26.938217386151724 312.723587979102
C 31.845508664038825 24.93719488630438 315.9670861088395
C 34.36902470555645 27.33783093497968 317.5084428666957
C 32.0895495607661 30.248184154892158 316.596343835879
C 29.201938486808316 28.46822465994765 318.3171102776282
C 31.39194813466794 28.180611253358993 321.4187149816904
C 32.05415462431189 31.925737902242645 321.3160681498792
C 28.309303033216988 32.512103191750604 320.9776009417737
C 27.771930374417796 30.4384606158505 324.12422611072776
C 30.339794821478517 32.655870999752935 325.85818563012606
C 28.886773001662082 36.09351703459042 325.1076609835726
C 25.152735034831526 35.64215680331086 325.691210382754
C 25.172963279230796 33.23496718285009 328.62792157062006
C 27.797994157699343 31.403297950702157 330.65236592955
C 29.866605467210213 28.41063732526169 329.5592745152863
C 29.431940637492293 24.775188136238082 330.552211059093
C 32.038518670477 22.3420022342713 331.81127172526584
C 31.308099978624924 20.33596648419128 328.65861896464116
C 31.703939174984114 23.226017026730343 326.2089722225838
C 35.107947361124786 24.074727846745372 327.7106394703356
C 36.191710407680006 20.484410484849406 326.9256887583968
C 35.00175910852391 20.18884112305665 323.3155683336074
C 36.65697366901831 23.57311049703861 322.73555683464815
C 40.06683242722639 21.877125896862964 322.8736491594457
C 39.02723859475326 19.744228831445906 319.88560054921436
C 36.95554078436107 22.37362248587156 318.06904079759954
C 39.98134816372163 24.683292848604836 318.04482939309736
C 41.94614353787193 21.894053912730065 316.3490721363731
C 39.25020104684965 21.825846723893168 313.6652497777786
C 40.20266541635246 25.44707194695869 312.98759075885033
C 43.73961915825297 24.32705013845284 312.1095859592651
C 42.848121713499815 21.558375619631718 309.6629306414541
C 40.80329291051081 24.073641676263787 307.6759358727393
C 44.145239319031724 25.678403071849704 306.8225244585545
C 45.51821465690208 22.23350660677695 305.8873005449443
C 42.80012622267457 21.03580771582882 303.51001876839825
C 42.479690939153784 24.351963768082427 301.6589941188772
C 45.86841819494176 23.841315143799665 299.94209978021024
C 44.59328047920722 20.326645484735987 299.21139195529247
C 41.40527305539145 21.764984964784503 297.692635664767
C 43.37342745223273 24.17129029550621 295.5031885565345
C 45.43931259939131 21.279960841214084 294.14872199413713
C 42.46974791451573 19.098696749445185 293.19850584241374
C 40.39047279641829 21.747962515690244 291.3972972863266
C 42.815011962889834 24.350473177041778 290.01388999374194
C 44.163657708039786 22.555949699437548 286.95315191208044
C 46.43604296005768 25.509809913936802 286.1611339933495
C 48.08723637700116 25.38567267353348 289.58990599017125
C 49.080115286572514 21.754257865525023 289.03812403165256
C 50.89694829287326 22.697946320612065 285.83302442548194
C 52.62383509811472 25.677962632999932 287.457433287475
C 53.72697095453401 23.236891331042546 290.1677988289795
C 55.13538204135949 20.77209935126871 287.6274861099928
C 56.85009498784205 23.73637405972305 285.9366091536089
C 59.2008847894831 23.733477944194757 288.9352697470226
C 59.32653050745223 19.91685938105379 288.69487636168947
439
Mode 10 - Frame 14
C 49.21415699137653 36.11267885164067 337.39121614684404
C 50.64851275039448 33.93583539403635 338.7336770262539
C 50.49276850679242 30.690275961469585 336.7946514979917
C 50.25223996452092 33.054684276969105 333.8223858602333
C 47.50475254934235 33.96510860744906 331.37127842743314
C 49.02279624989854 32.22324759117154 328.35481592816024
C 47.90430416512584 31.39202332904633 324.8309300928084
C 46.99399391771015 27.71370398037782 324.363306570691
C 46.70748309180746 27.219130960277305 328.14650100923654
C 43.35637375589468 25.428655926287693 328.12354676153495
C 41.579215588045095 23.386875216572097 330.81004855195846
C 43.15871238859455 20.140212526388314 329.50273748003855
C 40.99443713777549 17.48243260606607 331.12227974603894
C 43.29448435261879 14.448320041538912 330.85294954182626
C 41.94137941177696 10.924248642790422 330.43553162939816
C 45.448365764208184 9.510599576009577 329.8712499086806
C 49.00426644841412 10.710509508694098 330.497780434959
C 51.80646374525057 11.12603955245754 329.4720966052263
C 51.3649833432141 9.320755036183014 326.14979058098567
C 48.60626476914185 11.801005874171649 325.3544039107242
C 50.83297978810495 14.693202783408292 326.41779875003397
C 53.76223374728789 13.279679783835425 324.4344260975237
C 51.90416394402829 11.860172564593748 321.4284547199271
C 49.4006886626335 14.711112023545187 321.0516189811482
C 52.270059957290165 17.190292139564928 321.3279552657787
C 54.33024496453882 15.678681516851777 318.5023409178947
C 51.1569913010584 15.016729779791397 316.50595623375676
C 49.82064972628472 18.56529030520362 316.82891171694837
C 53.22878731619247 20.13480608849732 316.19082230865865
C 53.75699421459346 18.006254804689508 313.0727245333375
C 50.28202560193163 18.888614590869253 311.7970919319942
C 51.01088356257345 22.58022660759022 312.30636031549176
C 54.397692981479146 22.613139733130964 310.57895070783354
C 52.92771617994397 20.63750899683299 307.6722576391126
C 50.33166325531537 23.38536367103548 307.20239781055074
C 52.891676438796026 26.20060061525749 307.2795807848761
C 54.947475276503134 24.47837707183417 304.5830999763236
C 52.03669336577853 23.461000006386612 302.3596656249955
C 50.528186936846225 26.95649370260796 302.5094839364093
C 54.02038844933237 28.341691297853654 301.9417872712249
C 54.09887655122772 26.05880999535875 298.8940527720027
C 50.895749986931605 27.626716526673366 297.54268152866786
C 52.331644741001995 31.103624228601888 298.12419643152106
C 55.42089888888428 30.05087850117594 296.15404424910423
C 53.91085802094685 28.762342929012952 292.8999381384921
C 51.72016190862885 31.87094863069811 292.62243884516107
C 54.44493724383292 34.47973115995289 293.12267541630143
C 56.81151928091412 32.28308485043125 291.09205428122027
C 54.75270931690908 32.15166623901273 287.8853954759326
C 53.51950551906929 35.21992968043177 286.0136978465142
C 50.63712345632534 33.39942765850121 284.3110536379601
C 48.93176931490647 33.30769264628391 287.7414417272755
C 49.91417826943462 36.53105736774021 289.5363693202469
C 48.208278011289586 38.40745803959026 286.6815010349292
C 44.94069127766625 36.482714874397345 287.15330559380027
C 42.38581861683649 38.05672531908151 289.53890836938507
C 41.271557829119324 34.5650280470446 290.59739583887233
C 44.697696991883376 33.800624595192936 292.0993619614617
C 44.66573360270722 37.02305304556722 294.08926997367365
C 41.844571658906084 35.15434765957 295.86217319292314
C 43.710676678029515 31.877833348361133 296.4512259506819
C 46.9250521258553 33.63823309045908 297.44198789597067
C 44.93819600588224 35.767212154010856 299.8851070474806
C 43.40415504869013 32.64362123440397 301.4359430560969
C 46.724920503493834 30.79711201486046 301.5441894352669
C 48.528336874539264 33.6796384154774 303.2606102044983
C 45.594303392620674 33.86836643438203 305.67895086977285
C 45.86657514545787 30.125373884846393 306.3243421730036
C 49.62263168621723 30.596996085216972 306.731153758933
C 49.321212953974346 33.544614950484934 309.13732645694466
C 47.289721135746504 31.3201741513879 311.45080457851503
C 49.28321984704757 28.11559095607146 311.023746128846
C 52.46694222711095 30.077646317269913 311.7719607038212
C 50.96416720964117 31.504996052637605 314.9672609534592
C 49.85564366885066 27.996081839569065 315.9145470343041
C 53.312770606490844 26.433809681532416 315.63426191559705
C 54.945742603625895 29.48171026302902 317.22605824643654
C 52.637899978720675 29.576948714799855 320.25269300883883
C 52.734435834722845 25.778628485546868 320.5385008858468
C 56.537618417806286 25.57494929291309 320.6608278973402
C 56.71914131428391 28.761938275910634 322.7571924549902
C 54.533832614449715 27.314005660171052 325.54439104839105
C 54.45973241498749 23.50504654456868 325.33232755754574
C 58.26175213891296 23.313210421735594 324.9097204698739
C 59.740446217408575 26.415026477078978 326.5606942002047
C 56.83274938089957 27.10989322024272 328.9572572459831
C 57.412141824875064 30.846097446723437 328.5478753539517
C 54.88553715175539 33.36090213371127 329.85366167933387
C 52.69850672082837 35.721418760722706 327.84347793988417
C 52.1766397372388 39.33337986988078 328.8678183422076
C 49.0033664479596 41.19073962835976 327.87492775428365
C 50.26476592770653 42.4597029747885 324.51387216456584
C 52.137079089139704 39.298946814771014 323.49836715380536
C 48.962022366492036 37.319434688912814 324.2101713151355
C 46.59241610268502 39.547523344739325 322.22788777499676
C 49.03079400169017 39.689214518643425 319.30698647933303
C 48.9326736784463 35.89307706535203 319.0357750109344
C 45.14562870214239 35.81441800644959 319.3936551010652
C 44.736904163216934 38.77657947698622 317.0513732255077
C 46.82830096366702 37.01334136125552 314.42792237732107
C 44.48889561474489 34.02157358708307 314.53395876430994
C 41.52850896864934 36.40679453467802 314.5680216771612
C 42.99380503811862 38.22010451169463 311.5524269007803
C 43.54288495975233 34.92304744377225 309.7215443171444
C 39.84181811784525 34.06043894497006 309.8882598491847
C 38.74898770343478 37.63989896355766 309.21210216264643
C 40.731823599876556 37.83012358465744 305.9715327548299
C 39.42432677288282 34.368499886207765 305.06275741335435
C 35.82500392960319 35.574581040425606 305.35386038790557
C 36.83037377222075 38.86850840246816 303.745367264026
C 38.27395100271589 36.93990544115155 300.80035791278954
C 35.09419863115796 34.89229442688343 300.3365564484383
C 33.231764590242214 38.2099883607261 300.37352346190823
C 35.33532615189956 39.68397503761225 297.5600718297606
C 34.899488706852246 36.46561985650109 295.58679845919454
C 31.11837540737883 36.8173040621415 295.8389364985693
C 31.43117624762496 40.332020395219246 294.39395875553726
C 33.52980317336826 39.06059281772393 291.4863235138628
C 30.886895079787013 36.439298872980366 290.7227826599779
C 28.12408959987281 39.03822564921781 291.00524858270467
C 29.919089685622858 41.11632195628704 288.360842247508
C 30.3688232184184 38.03365971260277 286.16773980547686
C 26.637947774677794 37.29885822983697 286.4281552927849
C 25.30549169288298 40.83452321042052 285.9406351495988
C 27.972760527898515 42.09952178298608 283.4870569787785
C 29.098895793342916 39.00214988493848 281.5642578023139
C 30.103678145545555 41.01728741458998 278.4957250372812
C 32.38634482335811 43.56883468746372 280.1813229634862
C 33.435688514797214 41.43461782908543 283.1725780786285
C 37.01605134082987 41.00274813995194 281.937843772171
C 37.586201521560696 44.76676440723657 281.7392305227491
C 35.869948944709414 45.544112441199836 285.0702497513632
C 37.65288622523089 43.07346095229698 287.3728730873828
C 41.32613872891899 43.64616573112801 286.5465954719104
C 44.64403218507013 42.963745112152196 288.24727419454956
C 44.97623135401278 46.51878232161482 289.65224302744826
C 41.334740349296 46.45822322831373 290.7674614933844
C 41.731403249913534 43.11413778381545 292.53937499664266
C 44.90971416281722 44.16311914092885 294.3652811474716
C 43.23864120585461 47.29411276842359 295.7420668865175
C 40.186694431064076 45.35069170537478 296.923525122852
C 42.28611531470707 42.73631284218128 298.72026685942444
C 44.73745980931368 45.23888832178043 300.2133194634406
C 41.81244726056505 47.22733113376399 301.6155961599466
C 40.13315035957191 44.07861449547872 302.8934199471862
C 43.230436585537944 42.94495087684246 304.7896281357639
C 43.710052562978575 46.32791367830742 306.4581301049974
C 40.088954437903354 46.127069748554554 307.5998589762912
C 40.74182929377248 42.55197077538951 308.7328129761803
C 43.97353083762093 43.484433100954675 310.52767003467244
C 42.34913108580546 46.48595434517255 312.2041671892756
C 39.866147336013725 44.2683740972741 314.0396769458173
C 42.62023828115381 42.08573305210785 315.4873936657408
C 44.58344440535123 45.12781673674906 316.6341211889525
C 41.48720249327298 46.81763676907581 318.153048944781
C 41.458386205962675 44.35500284221788 321.07902648611946
C 45.2391328793143 44.53408495078223 321.28815132383
C 45.002125045421366 48.310206573115856 321.22769716825525
C 41.95951378187821 49.33780626277295 323.2875166365061
C 39.12107422552466 46.88777991161444 323.9834863613603
C 40.17119320041003 44.902957477508195 327.0630796843073
C 39.34516797680056 43.52862895919681 330.4668354985597
C 42.3460082803684 45.30687326871437 331.97820567168225
C 42.03662340128307 48.63890659591919 330.18186670869545
C 38.22750376623018 48.8737467565279 330.338816163145
C 37.57705163635688 46.945544938452535 333.58581055312055
C 34.833972356998224 45.24835069991724 331.5693845971297
C 33.34304050502653 41.77425032402538 331.85824502120204
C 35.93377642622633 39.214959373687165 330.83128682146156
C 35.4242081791133 36.29293767137379 328.46004671204594
C 35.20494329485595 32.858690134525254 330.0699825059094
C 37.285258140693074 31.418507608099112 327.19821403993683
C 40.004773208667494 33.92295108755126 326.3308658459311
C 42.017224284627225 35.96021307606146 328.85489514487585
C 42.14787476602537 39.75416361914021 328.49940539173645
C 39.255120330660574 39.70480634702214 325.98235197732623
C 36.27730926576219 42.042630718040726 326.29534424852056
C 32.856340668722424 40.429117792048146 326.00377927763986
C 31.367666677768028 43.33633263384758 324.05919661533966
C 34.2254768376238 43.18749830205428 321.5597496822635
C 33.25471458655639 39.60544375233184 320.7100585609692
C 29.655012245136977 40.62898133617728 320.0391935834303
C 30.99369558061657 43.126612219089495 317.4999499910148
C 33.399774488467195 40.53922452914873 316.0752958165575
C 30.859583654929235 37.698152319222245 316.01929837322626
C 28.146553958771882 39.8857099042117 314.52296572525904
C 30.428893570586318 41.17020525752727 311.7618272273903
C 31.53651478730362 37.72756413579413 310.58061635162846
C 28.078373043940264 36.21012376114601 311.1113830280515
C 26.461578417521608 38.82627660494834 308.8582902772407
C 29.190895847526253 38.41640523987945 306.2465355462331
C 28.90586073249981 34.61923636200761 306.31696925890765
C 25.104584910435793 34.74696935124074 306.1266113909407
C 25.448295306262594 36.85563490104828 302.98263507832917
C 28.222236657836202 34.67874355459021 301.5276784355905
C 26.09232090803014 31.563791065932143 302.0149366479185
C 23.1730532117629 33.20050545579369 300.2072820182688
C 25.446269011999618 34.604387308533525 297.50013853463963
C 27.279421372564588 31.34195329199695 296.8094551460117
C 23.935017961049553 29.568397610448276 296.3680928292585
C 22.740672247355608 32.25419908370784 293.9441115997223
C 26.084738020301447 32.13901569611928 292.1076300663896
C 25.8915047863016 28.359258135922175 291.7159809243421
C 22.221779006680084 28.547713135860857 290.6881487845615
C 22.97442607092681 31.18930273229062 288.05625667429643
C 25.883480007564483 29.05460104992216 286.8443728463404
C 23.460532970483474 26.2198998881084 286.05102461171504
C 20.871370094463103 28.45220369395299 284.3563433029922
C 22.81988826313819 28.597783030540416 281.0844602958035
C 24.433073327161775 25.158821113171093 281.18353078413685
C 25.18821581916701 22.315603719120787 283.4999345062229
C 28.608040642702402 20.79146970848323 282.9216780586531
C 27.8305296293637 17.0670916959359 283.1714701032175
C 28.954957839410067 14.503564190424338 280.61206477234606
C 27.51775331477288 10.996794812849977 280.35448762317077
C 29.44427865486437 8.11075130912216 278.81367628151594
C 27.712997141965616 4.789093579411885 278.109843381021
C 29.891621729513112 2.032214375970893 276.6746916389937
C 29.365499900216506 -1.5344188120245692 275.558635113715
C 32.501256349515984 -3.6848720817096106 275.6144450779618
C 33.280297302996 -7.391515228362377 276.0149560844279
C 37.08559902608076 -7.491059405383732 275.79217512300005
C 37.546204342078255 -3.9860023256495767 277.21485464902054
C 38.76947858155504 -2.060018624126961 274.16411793191514
C 35.76219477357905 0.25639713528573205 274.1895034991443
C 35.93426461286341 0.45313968937158045 277.9972708404126
C 39.55680937387294 1.5944641092494773 277.7800742296376
C 38.539298525024186 4.053527507655896 275.0559890728611
C 35.75784483655631 5.494365876761903 277.2154546201928
C 37.99211579545659 5.720965888585504 280.2961243698847
C 40.561701718664054 7.6245305724819845 278.2248075529293
C 37.916298237204366 10.071053786063581 276.9842936465486
C 36.63500721974098 10.299729217516562 280.5623514560671
C 39.86306463179945 11.739851253306181 281.98392142343124
C 40.35450269773206 14.30408804380151 279.19795144529985
C 36.86748363890772 15.688192074040453 279.8514793222431
C 37.39486896330986 15.474718645205666 283.6186966284049
C 40.45117129244597 17.71936952062623 283.2934218765665
C 38.59742545606367 20.112798058089492 280.9780849191639
C 35.919488160677886 20.929658714844845 283.5626820131479
C 33.14368322509357 18.382529547662774 282.9975220126492
C 31.475575746537615 16.418830125154567 285.78496398775013
C 31.979775789375047 13.086813552546962 284.02529224878924
C 29.68177723146806 10.114599268043195 284.70786611497294
C 30.845894599846165 6.87068070956896 283.0760986148626
C 28.518644792159996 3.8593007719440755 283.0643944182447
C 28.472816200225168 0.4156732175438611 281.483877855716
C 25.529917609608002 -0.11574790780950119 279.1307997285198
C 24.5460199593897 -3.292762719793233 281.00110995534703
C 23.729276324902045 -1.2680956835390442 284.1433527450332
C 21.508412679706836 1.533550726446241 282.7765875437176
C 17.819285598125475 1.9653909391316013 282.0159291651808
C 17.013100369347274 3.800583892735009 278.7924842577557
C 14.071345322759894 5.821058878888939 280.11962566055314
C 15.217466344719739 9.375839949423854 280.7851830972102
C 18.854251195420037 8.2664066179028 280.7969717660885
C 20.264089502934564 11.426441192928932 279.2041277623225
C 18.374167885391135 13.82115091928449 281.4869446350216
C 20.56068795360211 16.151676090149138 283.5246130067844
C 23.49133028122897 15.801342991881464 281.11153444774993
C 24.257405319128008 18.248843205109022 278.31187655476595
C 26.931197012478293 16.022856066030556 276.7659715354719
C 26.366669524378057 12.315481580671971 276.1033186960056
C 28.942172397820933 9.988205865253116 274.5459386714434
C 27.771007252227832 6.552988581386275 273.44292682869536
C 30.444038442915797 3.9480533169239256 272.7302106988887
C 29.878892456652444 0.48686248093749346 271.3169160034563
C 31.932188250225682 -2.2165829504269015 269.61761978397607
C 30.783810177269352 -4.0975996786951505 266.51851618061966
C 30.226713776589865 -7.869152619987241 266.5299641306548
C 28.956094731973028 -8.742172640985535 263.0687192156445
C 29.811020344599257 -12.4438022747761 262.79625785797947
C 28.323184355333876 -12.55823162842299 259.30460483097715
C 25.992695408674347 -9.548889687399262 259.6765761496376
C 26.283786836841312 -6.311020134927027 261.6771216735781
C 25.57821481375179 -6.418053373433621 265.40397930782717
C 26.064633225185144 -4.131992342265093 268.3814194368878
C 27.85136509456212 -5.319375141099955 271.4941526720697
C 25.235708470103805 -7.282017767995294 273.38062676378723
C 25.093811975920264 -5.092132221108045 276.48550715599015
C 24.24466456052959 -2.0785533733072046 274.3073999744197
C 21.310815503598825 -3.548069823571892 272.36629467922205
C 18.649311116265924 -2.9451783883738956 275.0824301308805
C 19.6415961590642 0.7265781430541909 275.13464864139104
C 19.761643716560673 0.909684003463975 271.34639315585144
C 16.290824658032758 -0.6081771915754148 271.015343583345
C 14.792878976791986 1.9699956811405608 273.40574286680715
C 17.008779436945527 4.905407336353996 272.4621353812758
C 14.026176332376446 7.186392792000414 271.78289986007644
C 13.24579184173882 7.1125926994708895 275.52986757864954
C 16.6135074534152 8.564480809333212 276.56934826088957
C 15.875942016768748 12.228115952717676 275.84577485779215
C 18.288051807842752 12.570337841325635 272.90870362912807
C 16.3153657662165 15.161406300797484 270.924338307341
C 18.046784754666465 18.52386827267911 271.0955246515205
C 20.867808983281122 17.143258488889618 273.2279131365171
C 24.564878229252955 17.16686315499723 272.32853443766624
C 25.88132582415095 13.659644126344812 271.60821441577707
C 28.780276767985264 11.905166588347042 269.91008148184426
C 29.688739315195118 8.281719207136257 269.3030404573138
C 32.81218437652708 6.151082051965229 269.51535754048024
C 33.54926592947869 2.47011968035295 269.10904906226233
C 36.20358116919176 -0.19325757809883806 268.6104917187679
C 36.26148274453483 -2.365335230472576 265.5097182405648
C 38.57595103209421 -3.931962782654202 262.9511800841874
C 38.86998384486273 -3.050322638541861 259.2758272521267
C 39.11476188112088 -6.660270827918422 258.0519122992785
C 35.347060736336026 -6.933138494352505 258.5636458926688
C 32.9875951663057 -5.697980045594208 255.8869091502263
C 31.4098985584974 -2.9647095269224026 258.030403668853
C 34.2003402315557 -1.3355240846336327 260.0235481212094
C 32.64427331979069 -0.03469506594287061 263.25058169313144
C 29.159597896419932 -0.5399221974115145 261.83952361811606
C 27.88730471904114 -0.11962172664061865 265.39978963290275
C 28.76650743480372 3.5815509838340547 265.60583397896886
C 27.166132552150458 4.065646773020665 262.1833329668436
C 23.92635413588958 2.5171143774712053 263.4324759988765
C 23.96597884581436 4.540768733354563 266.6576685020282
C 24.692711142801258 7.837340854538657 264.8917261143741
C 21.957264144976 7.269050480879296 262.2975461858639
C 19.408740673976016 6.626013981295333 265.04229385448974
C 20.658619410321485 9.650462543911273 266.98150097295303
C 20.160413418175068 11.745162704767898 263.84200460182376
C 16.665425930741932 10.325087193283018 263.3824088767228
C 15.902544463546485 11.29510575058058 266.9961673078054
C 16.89197937745459 14.933216833208705 266.5196820778663
C 20.003795844667152 14.787277985788725 268.67530760753715
C 22.622699452674777 17.483672050341635 268.0795665234949
C 25.630255930159077 15.429805611571826 266.9792988531728
C 28.632510819373195 17.572772796962603 267.8698725114531
C 31.11846107390886 15.843441969021487 265.5533557321068
C 31.824238309981528 12.676248387665632 263.60749314447946
C 32.21750343682022 9.407091986629796 265.4336065898623
C 35.48451520484042 7.970892535513413 266.69990557408033
C 36.241102895368954 4.668049080794407 264.94403028460533
C 39.195864823551105 2.7885428289945406 266.43622289791574
C 40.87719494475452 0.1162624053309746 264.31776424880655
C 42.661124645585936 -2.686624880069357 266.12138940377275
C 44.0888400087813 -2.063193220433953 269.5694015060867
C 42.934869854352826 1.2585856730267577 271.07477878720056
C 46.10578516893756 1.5783626869706935 273.15005362054075
C 48.07734018398451 1.8241884000218436 269.8816511437031
C 45.80050226424088 4.682338236827936 268.70878552115147
C 45.68310069383806 6.788260445760407 271.8849825407301
C 46.599893442587216 10.058914892203257 270.141468998706
C 43.35069275964987 9.892719327957844 268.1633714240735
C 41.187807124873245 9.07200868474909 271.19350200475634
C 42.612568370659694 12.048028043766001 273.08205960793197
C 42.3933015055133 14.211940578381517 269.9659532905159
C 38.74814911577535 13.259553009850427 269.4627083408899
C 37.93512297937008 13.932172949096849 273.12105895085216
C 39.52778289306516 17.36101460808656 272.7063091109474
C 37.22369872348925 18.186262953413355 269.7970524738607
C 34.13901153624613 16.89797814166024 271.63044132888314
C 35.196409404082246 18.983590610953524 274.64407811196463
C 34.077503458078645 22.17724618553786 272.912081935978
C 30.428942878994366 21.09690962097317 272.84983213412687
C 29.82132441203899 23.382869333777794 275.85307476791235
C 31.665244947412138 26.74088188105493 275.7455852546067
C 34.71822197050483 27.177087093831055 277.96512559468306
C 33.17310765279104 30.130788380703418 279.8006113897907
C 30.141662941123883 28.102725757808233 280.88408599580816
C 32.24826424983391 25.225627977697247 282.1957408602373
C 34.72748637201475 27.605635970610876 283.8310588905912
C 31.940802667359502 29.536376294810726 285.5504340017758
C 30.576829654290265 26.243273817138327 286.90536359560554
C 33.85011960716977 24.95083006028021 288.33679766135936
C 34.53294713627282 28.37639337919719 289.8369581383242
C 31.086521971222425 28.266771876943533 291.43294937619845
C 31.58030941842159 24.645595807723005 292.5199859005562
C 35.02284073657131 25.402144565166665 293.96147718309044
C 33.77738955644914 28.35088320195555 296.0193507124286
C 30.945795723473413 26.409779743666206 297.65386058771367
C 33.43435814968913 23.72991385938915 298.6900529216679
C 35.75765030166766 26.298582751210215 300.28134661683896
C 32.732632747908504 27.717061035601475 302.09856551404374
C 31.361553608025783 24.401392549864727 303.38509313018176
C 34.80408549183892 23.38271060437191 304.64674904216054
C 35.13275133028877 26.74478784288065 306.3902557965916
C 31.759476883407114 26.32401897280903 308.10976242940615
C 32.59262666600747 22.768645325058266 309.1856875434694
C 35.914268187168624 23.674178438285818 310.7983873565345
C 35.45919373765984 27.192210882814248 312.1634493465894
C 31.70647669349582 26.949843034205454 312.72281172774984
C 31.848192992163426 24.94980919235693 315.9655775271734
C 34.372434436664605 27.349645491844896 317.507737550598
C 32.09416921616594 30.260314877075185 316.59568692898597
C 29.204412704796347 28.48180207116415 318.3141233924326
C 31.39246231768535 28.19253319712551 321.41641015859307
C 32.056523187868336 31.93710910657047 321.31554600649145
C 28.312087879795065 32.52525115052717 320.9758406944775
C 27.771964409470435 30.451433855110626 324.1211826028726
C 30.340383948536715 32.66668831236182 325.8571172292016
C 28.889816943407496 36.105485035289554 325.10733787516943
C 25.15530870618886 35.65625621456951 325.68915222260466
C 25.172981229433482 33.24818162681704 328.6250269310151
C 27.796041694779166 31.413906557005525 330.64974290380405
C 29.86288768893596 28.42010237579493 329.5562073458451
C 29.425126039813335 24.78438393400556 330.5467307604111
C 32.029466194295786 22.348355928226503 331.8052729414541
C 31.29827451205209 20.344781802360302 328.6509839508012
C 31.698102951627728 23.235785297610164 326.2036086742816
C 35.102107136139686 24.081215669473263 327.70739390002626
C 36.18158654525374 20.491542273201073 326.91948611640373
C 34.995033247596574 20.19722889176926 323.3089357291258
C 36.653564732466286 23.580388928342604 322.7328404888199
C 40.06202604474979 21.88195265176256 322.8708876825141
C 39.02418898433559 19.751449417376776 319.8813963453
C 36.95723175171297 22.384072449744597 318.0665767060083
C 39.98362211946598 24.691948630154652 318.04491279081884
C 41.94949518021466 21.903804152637612 316.34854804426874
C 39.25596872560874 21.8361870735608 313.66415001957625
C 40.208694927208185 25.45730220090219 312.9877908080798
C 43.74567128144171 24.337291053041767 312.1092995249718
C 42.85539466186441 21.569923918460486 309.6614980568638
C 40.81097100239401 24.085059918708236 307.6759672200491
C 44.15245477831914 25.690915610624053 306.8222680876353
C 45.526908660878696 22.24743502371131 305.8861759702434
C 42.809841115333455 21.048122452607213 303.5095207641451
C 42.48864095192153 24.364202221884106 301.6589969937447
C 45.87750153318155 23.8563148129294 299.94156217497715
C 44.60585294490653 20.34001718429637 299.211689185606
C 41.41687149066728 21.77525773819834 297.6933025923532
C 43.3829950949363 24.182880303301875 295.5030963844998
C 45.452358193493154 21.293667214863646 294.1488578916604
C 42.48649135127532 19.10666626256478 293.2011915498325
C 40.40197359234738 21.751402647052206 291.4000849421554
C 42.822338560612465 24.357574319587695 290.0139437680684
C 44.17164630575797 22.561351414574773 286.9525888232408
C 46.437488449013166 25.522612405917293 286.1600908340152
C 48.09200912592766 25.402941720022614 289.58799662615763
C 49.090324354825476 21.772707341894687 289.03610808248646
C 50.90332835498602 22.719481067604274 285.8295906776629
C 52.62684868526966 25.70193355452527 287.4537996757695
C 53.735784087466726 23.26187476648764 290.16252004062136
C 55.146438371354414 20.80040290816649 287.6204048691537
C 56.854936851989144 23.767476309184207 285.92849010599036
C 59.20827355334432 23.76795121975848 288.9253612926144
C 59.3404472410266 19.9521238583563 288.68271605720383
439
Mode 10 - Frame 15
C 49.211 36.102 337.397
C 50.641 33.922 338.739
C 50.481 30.678 336.798
C 50.247 33.045 333.827
C 47.502 33.96 331.375
C 49.019 32.218 328.358
C 47.901 31.39 324.833
C 46.988 27.713 324.364
C 46.699 27.216 328.147
C 43.349 25.426 328.126
C 41.572 23.38 330.808
C 43.149 20.132 329.497
C 40.979 17.476 331.113
C 43.256 14.428 330.816
C 41.882 10.915 330.366
C 45.381 9.485 329.797
C 48.942 10.661 330.443
C 51.749 11.076 329.43
C 51.312 9.291 326.097
C 48.565 11.787 325.308
C 50.8 14.666 326.392
C 53.73 13.255 324.412
C 51.88 11.85 321.394
C 49.384 14.708 321.022
C 52.257 17.181 321.314
C 54.322 15.675 318.489
C 51.154 15.02 316.482
C 49.82 18.569 316.813
C 53.23 20.137 316.183
C 53.764 18.015 313.062
C 50.29 18.899 311.784
C 51.018 22.59 312.3
C 54.406 22.626 310.575
C 52.939 20.654 307.665
C 50.341 23.401 307.198
C 52.9 26.217 307.278
C 54.957 24.499 304.58
C 52.047 23.481 302.356
C 50.536 26.975 302.508
C 54.027 28.363 301.94
C 54.107 26.082 298.891
C 50.902 27.647 297.541
C 52.335 31.125 298.123
C 55.424 30.076 296.151
C 53.914 28.787 292.897
C 51.72 31.893 292.621
C 54.442 34.505 293.121
C 56.81 32.312 291.089
C 54.75 32.179 287.883
C 53.513 35.246 286.012
C 50.632 33.422 284.31
C 48.928 33.327 287.741
C 49.908 36.552 289.536
C 48.199 38.427 286.682
C 44.934 36.498 287.155
C 42.379 38.069 289.542
C 41.269 34.575 290.6
C 44.696 33.815 292.101
C 44.662 37.038 294.091
C 41.844 35.166 295.865
C 43.713 31.891 296.453
C 46.926 33.655 297.443
C 44.939 35.782 299.887
C 43.408 32.657 301.438
C 46.73 30.813 301.545
C 48.532 33.696 303.262
C 45.599 33.882 305.681
C 45.873 30.139 306.325
C 49.629 30.612 306.732
C 49.327 33.557 309.14
C 47.296 31.331 311.452
C 49.29 28.127 311.023
C 52.473 30.088 311.775
C 50.969 31.511 314.971
C 49.859 28.002 315.914
C 53.315 26.438 315.635
C 54.947 29.482 317.233
C 52.636 29.574 320.257
C 52.728 25.775 320.538
C 56.531 25.567 320.665
C 56.714 28.75 322.765
C 54.524 27.301 325.548
C 54.443 23.491 325.331
C 58.244 23.294 324.914
C 59.727 26.392 326.569
C 56.819 27.091 328.963
C 57.405 30.827 328.557
C 54.882 33.347 329.86
C 52.699 35.712 327.85
C 52.18 39.324 328.876
C 49.009 41.186 327.883
C 50.272 42.456 324.523
C 52.142 39.294 323.507
C 48.965 37.317 324.216
C 46.598 39.549 322.234
C 49.037 39.691 319.314
C 48.936 35.895 319.041
C 45.149 35.819 319.397
C 44.743 38.783 317.056
C 46.834 37.021 314.432
C 44.494 34.03 314.536
C 41.534 36.416 314.571
C 42.999 38.23 311.556
C 43.548 34.934 309.724
C 39.847 34.071 309.891
C 38.753 37.65 309.216
C 40.734 37.841 305.975
C 39.428 34.379 305.066
C 35.828 35.583 305.358
C 36.831 38.877 303.749
C 38.274 36.949 300.804
C 35.096 34.898 300.341
C 33.231 38.214 300.377
C 35.331 39.689 297.563
C 34.898 36.469 295.591
C 31.117 36.816 295.843
C 31.425 40.33 294.396
C 33.524 39.059 291.489
C 30.885 36.433 290.727
C 28.119 39.029 291.008
C 29.91 41.107 288.362
C 30.365 38.023 286.171
C 26.635 37.284 286.432
C 25.297 40.817 285.942
C 27.962 42.083 283.487
C 29.094 38.986 281.567
C 30.096 41.0 278.497
C 32.373 43.558 280.181
C 33.426 41.428 283.174
C 37.007 41.003 281.94
C 37.57 44.768 281.74
C 35.852 45.544 285.07
C 37.639 43.079 287.375
C 41.311 43.657 286.549
C 44.63 42.979 288.249
C 44.957 46.535 289.653
C 41.316 46.469 290.77
C 41.719 43.126 292.542
C 44.897 44.179 294.366
C 43.223 47.308 295.744
C 40.175 45.361 296.928
C 42.279 42.749 298.723
C 44.729 45.254 300.214
C 41.804 47.239 301.62
C 40.129 44.089 302.899
C 43.229 42.957 304.792
C 43.71 46.339 306.461
C 40.091 46.137 307.607
C 40.746 42.562 308.738
C 43.979 43.494 310.531
C 42.358 46.495 312.21
C 39.875 44.278 314.046
C 42.629 42.094 315.492
C 44.594 45.134 316.64
C 41.499 46.825 318.16
C 41.468 44.361 321.085
C 45.249 44.537 321.295
C 45.015 48.313 321.236
C 41.973 49.342 323.296
C 39.132 46.894 323.99
C 40.18 44.907 327.069
C 39.352 43.532 330.472
C 42.354 45.307 331.985
C 42.048 48.64 330.19
C 38.239 48.878 330.346
C 37.586 46.949 333.592
C 34.842 45.255 331.574
C 33.348 41.782 331.861
C 35.937 39.221 330.834
C 35.426 36.3 328.462
C 35.204 32.865 330.071
C 37.284 31.424 327.2
C 40.005 33.927 326.333
C 42.018 35.962 328.858
C 42.152 39.756 328.504
C 39.26 39.71 325.986
C 36.284 42.05 326.299
C 32.862 40.439 326.006
C 31.376 43.348 324.062
C 34.234 43.198 321.563
C 33.261 39.617 320.712
C 29.662 40.643 320.041
C 31.002 43.14 317.502
C 33.406 40.552 316.077
C 30.865 37.712 316.021
C 28.152 39.9 314.525
C 30.433 41.182 311.763
C 31.54 37.739 310.583
C 28.082 36.222 311.115
C 26.464 38.835 308.861
C 29.192 38.423 306.249
C 28.909 34.626 306.322
C 25.108 34.751 306.133
C 25.449 36.856 302.987
C 28.224 34.68 301.533
C 26.097 31.564 302.023
C 23.176 33.196 300.215
C 25.447 34.599 297.506
C 27.283 31.338 296.817
C 23.94 29.561 296.378
C 22.743 32.243 293.952
C 26.087 32.129 292.115
C 25.897 28.349 291.726
C 22.227 28.533 290.699
C 22.977 31.173 288.065
C 25.888 29.04 286.854
C 23.467 26.203 286.063
C 20.876 28.432 284.367
C 22.825 28.579 281.095
C 24.441 25.142 281.196
C 25.197 22.299 283.513
C 28.617 20.775 282.935
C 27.839 17.05 283.183
C 28.962 14.487 280.622
C 27.523 10.981 280.361
C 29.447 8.095 278.817
C 27.713 4.775 278.109
C 29.889 2.018 276.67
C 29.36 -1.547 275.549
C 32.494 -3.7 275.602
C 33.27 -7.408 275.997
C 37.075 -7.51 275.775
C 37.538 -4.007 277.203
C 38.763 -2.078 274.155
C 35.758 0.24100000000000005 274.183
C 35.93 0.43300000000000005 277.991
C 39.553 1.572 277.776
C 38.538 4.035 275.055
C 35.758 5.476 277.216
C 37.992 5.698 280.297
C 40.563 7.602 278.229
C 37.92 10.052 276.991
C 36.639 10.279 280.569
C 39.867 11.717 281.992
C 40.361 14.283 279.209
C 36.875 15.669 279.863
C 37.403 15.455 283.63
C 40.46 17.701 283.306
C 38.605 20.094 280.991
C 35.927 20.913 283.575
C 33.152 18.365 283.01
C 31.484 16.4 285.796
C 31.986 13.067 284.034
C 29.687 10.094 284.713
C 30.847 6.85 283.078
C 28.518 3.839 283.062
C 28.469 0.3970000000000001 281.477
C 25.526 -0.12999999999999998 279.123
C 24.54 -3.309 280.989
C 23.725 -1.288 284.134
C 21.506 1.517 282.771
C 17.817 1.952 282.011
C 17.012 3.792 278.79
C 14.072 5.813 280.12
C 15.221 9.366 280.79
C 18.857 8.254 280.8
C 20.269 11.415 279.211
C 18.381 13.808 281.497
C 20.569 16.135 283.537
C 23.499 15.786 281.123
C 24.266 18.235 278.325
C 26.939 16.01 276.777
C 26.372 12.304 276.111
C 28.946 9.977 274.551
C 27.772 6.544 273.444
C 30.443 3.938 272.728
C 29.875 0.479 271.31
C 31.926 -2.224 269.607
C 30.776 -4.1 266.505
C 30.215 -7.871 266.51
C 28.943 -8.737 263.047
C 29.793 -12.439 262.767
C 28.305 -12.545 259.275
C 25.978 -9.534 259.653
C 26.273 -6.301 261.66
C 25.568 -6.414 265.387
C 26.057 -4.133 268.368
C 27.843 -5.326 271.479
C 25.226 -7.289 273.363
C 25.086 -5.103 276.471
C 24.239 -2.086 274.297
C 21.304 -3.551 272.354
C 18.643 -2.95 275.071
C 19.638 0.721 275.128
C 19.758 0.909 271.34
C 16.286 -0.606 271.007
C 14.79 1.97 273.401
C 17.008 4.905 272.461
C 14.027 7.189 271.785
C 13.247 7.111 275.532
C 16.616 8.559 276.573
C 15.881 12.224 275.854
C 18.293 12.568 272.917
C 16.322 15.163 270.936
C 18.056 18.524 271.111
C 20.876 17.138 273.241
C 24.573 17.16 272.341
C 25.887 13.653 271.617
C 28.785 11.899 269.917
C 29.691 8.276 269.306
C 32.813 6.143 269.516
C 33.547 2.462 269.105
C 36.199 -0.20299999999999999 268.603
C 36.255 -2.371 265.499
C 38.568 -3.936 262.938
C 38.863 -3.049 259.264
C 39.104 -6.657 258.034
C 35.336 -6.927 258.545
C 32.978 -5.685 255.87
C 31.403 -2.954 258.018
C 34.195 -1.331 260.014
C 32.64 -0.034 263.243
C 29.155 -0.534 261.831
C 27.883 -0.118 265.392
C 28.765 3.582 265.603
C 27.165 4.072 262.181
C 23.924 2.524 263.428
C 23.965 4.543 266.656
C 24.694 7.841 264.894
C 21.958 7.278 262.299
C 19.409 6.633 265.043
C 20.661 9.654 266.986
C 20.164 11.753 263.849
C 16.668 10.336 263.388
C 15.906 11.302 267.003
C 16.898 14.94 266.531
C 20.01 14.789 268.686
C 22.631 17.484 268.093
C 25.637 15.429 266.99
C 28.641 17.568 267.882
C 31.126 15.84 265.564
C 31.83 12.675 263.615
C 32.221 9.404 265.438
C 35.487 7.964 266.703
C 36.241 4.663 264.943
C 39.194 2.779 266.433
C 40.873 0.10800000000000003 264.311
C 42.654 -2.699 266.111
C 44.082 -2.081 269.56
C 42.931 1.24 271.07
C 46.102 1.554 273.146
C 48.074 1.802 269.878
C 45.8 4.664 268.709
C 45.684 6.766 271.888
C 46.604 10.038 270.149
C 43.355 9.877 268.17
C 41.191 9.055 271.199
C 42.618 12.028 273.091
C 42.401 14.195 269.977
C 38.755 13.246 269.472
C 37.942 13.916 273.131
C 39.537 17.344 272.719
C 37.234 18.173 269.81
C 34.148 16.885 271.642
C 35.206 18.968 274.657
C 34.089 22.163 272.926
C 30.44 21.084 272.863
C 29.831 23.368 275.866
C 31.674 26.726 275.757
C 34.727 27.162 277.977
C 33.179 30.117 279.81
C 30.148 28.087 280.894
C 32.256 25.21 282.207
C 34.733 27.593 283.84
C 31.945 29.525 285.558
C 30.583 26.231 286.915
C 33.857 24.941 288.346
C 34.538 28.372 289.843
C 31.092 28.261 291.44
C 31.589 24.64 292.529
C 35.032 25.403 293.968
C 33.784 28.353 296.024
C 30.954 26.41 297.66
C 33.445 23.732 298.696
C 35.766 26.305 300.285
C 32.74 27.722 302.102
C 31.37 24.405 303.389
C 34.813 23.389 304.65
C 35.14 26.753 306.392
C 31.766 26.332 308.111
C 32.599 22.777 309.188
C 35.921 23.685 310.799
C 35.465 27.203 312.164
C 31.712 26.962 312.722
C 31.851 24.963 315.964
C 34.376 27.362 317.507
C 32.099 30.273 316.595
C 29.207 28.496 318.311
C 31.393 28.205 321.414
C 32.059 31.949 321.315
C 28.315 32.539 320.974
C 27.772 30.465 324.118
C 30.341 32.678 325.856
C 28.893 36.118 325.107
C 25.158 35.671 325.687
C 25.173 33.262 328.622
C 27.794 31.425 330.647
C 29.859 28.43 329.553
C 29.418 24.794 330.541
C 32.02 22.355 331.799
C 31.288 20.354 328.643
C 31.692 23.246 326.198
C 35.096 24.088 327.704
C 36.171 20.499 326.913
C 34.988 20.206 323.302
C 36.65 23.588 322.73
C 40.057 21.887 322.868
C 39.021 19.759 319.877
C 36.959 22.395 318.064
C 39.986 24.701 318.045
C 41.953 21.914 316.348
C 39.262 21.847 313.663
C 40.215 25.468 312.988
C 43.752 24.348 312.109
C 42.863 21.582 309.66
C 40.819 24.097 307.676
C 44.16 25.704 306.822
C 45.536 22.262 305.885
C 42.82 21.061 303.509
C 42.498 24.377 301.659
C 45.887 23.872 299.941
C 44.619 20.354 299.212
C 41.429 21.786 297.694
C 43.393 24.195 295.503
C 45.466 21.308 294.149
C 42.504 19.115 293.204
C 40.414 21.755 291.403
C 42.83 24.365 290.014
C 44.18 22.567 286.952
C 46.439 25.536 286.159
C 48.097 25.421 289.586
C 49.101 21.792 289.034
C 50.91 22.742 285.826
C 52.63 25.727 287.45
C 53.745 23.288 290.157
C 55.158 20.83 287.613
C 56.86 23.8 285.92
C 59.216 23.804 288.915
C 59.355 19.989 288.67
439
Mode 10 - Frame 16
C 49.20784300862347 36.09132114835932 337.40278385315594
C 50.633487249605516 33.90816460596364 338.7443229737461
C 50.46923149320758 30.665724038530417 336.8013485020083
C 50.24176003547908 33.0353157230309 333.8316141397667
C 47.499247450657656 33.95489139255094 331.37872157256686
C 49.015203750101456 32.212752408828464 328.3611840718398
C 47.89769583487416 31.38797667095367 324.83506990719167
C 46.98200608228985 27.712296019622183 324.36469342930894
C 46.690516908192535 27.212869039722698 328.14749899076344
C 43.34162624410531 25.423344073712304 328.128453238465
C 41.56478441195491 23.3731247834279 330.8059514480415
C 43.13928761140545 20.12378747361169 329.4912625199615
C 40.96356286222451 17.46956739393393 331.10372025396106
C 43.21751564738121 14.40767995846109 330.7790504581737
C 41.82262058822304 10.905751357209576 330.2964683706018
C 45.31363423579182 9.459400423990422 329.7227500913194
C 48.87973355158588 10.6114904913059 330.38821956504097
C 51.69153625474944 11.025960447542463 329.38790339477373
C 51.259016656785896 9.261244963816987 326.0442094190143
C 48.52373523085814 11.772994125828353 325.26159608927577
C 50.767020211895044 14.638797216591708 326.366201249966
C 53.69776625271211 13.230320216164577 324.38957390247623
C 51.855836055971714 11.839827435406251 321.3595452800729
C 49.3673113373665 14.704887976454813 320.9923810188518
C 52.24394004270983 17.171707860435074 321.30004473422133
C 54.313755035461185 15.671318483148225 318.47565908210527
C 51.15100869894161 15.023270220208602 316.4580437662433
C 49.81935027371528 18.572709694796377 316.7970882830516
C 53.23121268380753 20.13919391150268 316.17517769134133
C 53.771005785406544 18.023745195310493 313.0512754666625
C 50.29797439806837 18.90938540913075 311.7709080680058
C 51.025116437426554 22.59977339240978 312.29363968450826
C 54.41430701852085 22.638860266869038 310.57104929216644
C 52.95028382005603 20.670491003167008 307.6577423608874
C 50.35033674468463 23.41663632896452 307.1936021894492
C 52.90832356120397 26.23339938474251 307.27641921512395
C 54.96652472349687 24.519622928165827 304.5769000236764
C 52.05730663422146 23.50099999361339 302.3523343750045
C 50.54381306315378 26.99350629739204 302.50651606359065
C 54.03361155066763 28.384308702146345 301.9382127287751
C 54.11512344877228 26.10519000464125 298.88794722799736
C 50.9082500130684 27.66728347332663 297.53931847133214
C 52.33835525899801 31.146375771398112 298.1218035684789
C 55.42710111111572 30.10112149882406 296.1479557508958
C 53.917141979053156 28.811657070987046 292.8940618615079
C 51.719838091371145 31.915051369301892 292.6195611548389
C 54.43906275616708 34.530268840047114 293.1193245836985
C 56.808480719085885 32.340915149568744 291.0859457187797
C 54.74729068309092 32.20633376098728 287.88060452406734
C 53.506494480930705 35.272070319568236 286.0103021534858
C 50.626876543674655 33.444572341498784 284.30894636203993
C 48.92423068509353 33.346307353716085 287.74055827272446
C 49.90182173056538 36.57294263225979 289.5356306797531
C 48.18972198871041 38.44654196040974 286.6824989650708
C 44.92730872233375 36.51328512560265 287.1566944061997
C 42.37218138316351 38.0812746809185 289.5450916306149
C 41.26644217088067 34.58497195295541 290.6026041611277
C 44.69430300811662 33.82937540480706 292.1026380385383
C 44.65826639729278 37.05294695443278 294.09273002632636
C 41.84342834109392 35.177652340429994 295.8678268070769
C 43.71532332197049 31.904166651638864 296.4547740493181
C 46.9269478741447 33.67176690954092 297.4440121040293
C 44.93980399411776 35.79678784598914 299.8888929525194
C 43.411844951309874 32.67037876559602 301.4400569439031
C 46.73507949650616 30.828887985139538 301.54581056473313
C 48.53566312546073 33.7123615845226 303.2633897955017
C 45.60369660737932 33.89563356561796 305.6830491302271
C 45.87942485454212 30.152626115153605 306.3256578269964
C 49.63536831378276 30.627003914783025 306.7328462410671
C 49.33278704602565 33.56938504951507 309.1426735430553
C 47.302278864253495 31.3418258486121 311.45319542148496
C 49.29678015295243 28.138409043928537 311.022253871154
C 52.47905777288905 30.09835368273009 311.77803929617875
C 50.973832790358834 31.517003947362394 314.97473904654083
C 49.86235633114934 28.007918160430933 315.91345296569585
C 53.31722939350915 26.44219031846758 315.63573808440293
C 54.94825739637411 29.48228973697098 317.23994175356347
C 52.63410002127933 29.57105128520015 320.2613069911612
C 52.72156416527716 25.77137151445313 320.5374991141532
C 56.52438158219371 25.55905070708691 320.66917210265984
C 56.70885868571609 28.738061724089366 322.77280754500975
C 54.51416738555029 27.287994339828945 325.55160895160896
C 54.4262675850125 23.47695345543132 325.3296724424543
C 58.22624786108704 23.274789578264407 324.9182795301261
C 59.71355378259142 26.36897352292102 326.57730579979534
C 56.805250619100434 27.07210677975728 328.96874275401694
C 57.39785817512494 30.807902553276566 328.5661246460483
C 54.8784628482446 33.33309786628873 329.86633832066616
C 52.69949327917163 35.7025812392773 327.8565220601159
C 52.1833602627612 39.314620130119216 328.88418165779234
C 49.0146335520404 41.18126037164024 327.8910722457163
C 50.27923407229347 42.45229702521151 324.5321278354342
C 52.1469209108603 39.28905318522898 323.51563284619465
C 48.96797763350797 37.314565311087186 324.22182868486453
C 46.60358389731498 39.550476655260674 322.2401122250032
C 49.04320599830983 39.69278548135658 319.321013520667
C 48.9393263215537 35.896922934647975 319.0462249890656
C 45.15237129785761 35.82358199355041 319.4003448989348
C 44.74909583678307 38.78942052301378 317.0606267744923
C 46.83969903633299 37.02865863874448 314.43607762267897
C 44.49910438525511 34.038426412916934 314.53804123569006
C 41.53949103135066 36.42520546532197 314.57397832283885
C 43.00419496188138 38.239895488305365 311.5595730992197
C 43.553115040247675 34.94495255622775 309.7264556828556
C 39.85218188215475 34.08156105502994 309.89374015081535
C 38.75701229656522 37.660101036442335 309.2198978373536
C 40.73617640012345 37.85187641534256 305.9784672451701
C 39.43167322711717 34.38950011379223 305.0692425866456
C 35.830996070396814 35.59141895957439 305.36213961209444
C 36.83162622777925 38.885491597531846 303.75263273597403
C 38.27404899728411 36.958094558848444 300.8076420872104
C 35.097801368842035 34.903705573116575 300.34544355156174
C 33.23023540975779 38.2180116392739 300.3804765380918
C 35.32667384810045 39.69402496238775 297.5659281702394
C 34.89651129314776 36.47238014349891 295.5952015408055
C 31.11562459262117 36.8146959378585 295.84706350143074
C 31.41882375237504 40.32797960478075 294.3980412444628
C 33.518196826631744 39.057407182276066 291.4916764861371
C 30.88310492021299 36.42670112701963 290.73121734002206
C 28.11391040012719 39.0197743507822 291.0107514172953
C 29.900910314377143 41.09767804371296 288.36315775249204
C 30.361176781581598 38.01234028739724 286.17426019452313
C 26.63205222532221 37.269141770163024 286.43584470721515
C 25.28850830711702 40.79947678957948 285.9433648504012
C 27.951239472101484 42.066478217013916 283.4869430212215
C 29.089104206657087 38.96985011506151 281.56974219768614
C 30.088321854454446 40.98271258541002 278.4982749627188
C 32.35965517664189 43.54716531253628 280.18067703651377
C 33.41631148520279 41.42138217091456 283.1754219213715
C 36.99794865917013 41.00325186004806 281.942156227829
C 37.553798478439305 44.76923559276343 281.7407694772509
C 35.83405105529058 45.54388755880016 285.0697502486368
C 37.62511377476912 43.08453904770302 287.3771269126172
C 41.29586127108101 43.667834268871985 286.55140452808956
C 44.615967814929874 42.9942548878478 288.2507258054505
C 44.93776864598722 46.55121767838517 289.6537569725518
C 41.29725965070401 46.479776771686275 290.77253850661555
C 41.70659675008647 43.137862216184544 292.5446250033573
C 44.88428583718278 44.194880859071155 294.3667188525284
C 43.207358794145385 47.32188723157641 295.7459331134826
C 40.16330556893592 45.371308294625216 296.93247487714797
C 42.27188468529294 42.76168715781873 298.7257331405756
C 44.72054019068632 45.269111678219566 300.2146805365594
C 41.79555273943495 47.250668866236005 301.6244038400534
C 40.12484964042809 44.09938550452128 302.9045800528138
C 43.227563414462054 42.96904912315754 304.79437186423604
C 43.70994743702143 46.35008632169258 306.46386989500263
C 40.09304556209665 46.14693025144545 307.61414102370884
C 40.75017070622752 42.57202922461048 308.7431870238197
C 43.98446916237907 43.503566899045325 310.5343299653276
C 42.366868914194534 46.50404565482744 312.21583281072435
C 39.883852663986275 44.2876259027259 314.0523230541827
C 42.637761718846185 42.102266947892154 315.49660633425924
C 44.60455559464877 45.14018326325094 316.64587881104745
C 41.51079750672702 46.832363230924194 318.16695105521904
C 41.47761379403733 44.366997157782116 321.0909735138805
C 45.25886712068571 44.53991504921777 321.30184867617004
C 45.027874954578635 48.31579342688415 321.24430283174473
C 41.98648621812179 49.34619373722705 323.3044833634939
C 39.14292577447534 46.90022008838556 323.9965136386397
C 40.18880679958997 44.9110425224918 327.07492031569274
C 39.35883202319943 43.535371040803184 330.47716450144026
C 42.3619917196316 45.307126731285635 331.9917943283178
C 42.05937659871693 48.64109340408081 330.19813329130454
C 38.250496233769816 48.8822532434721 330.353183836855
C 37.59494836364312 46.95245506154746 333.5981894468794
C 34.85002764300177 45.261649300082766 331.5786154028703
C 33.35295949497347 41.78974967597461 331.86375497879794
C 35.940223573773665 39.22704062631283 330.83671317853845
C 35.4277918208867 36.3070623286262 328.46395328795404
C 35.20305670514405 32.87130986547475 330.07201749409063
C 37.282741859306924 31.429492391900887 327.20178596006315
C 40.00522679133251 33.93104891244874 326.33513415406895
C 42.018775715372776 35.96378692393855 328.86110485512415
C 42.156125233974635 39.75783638085979 328.5085946082636
C 39.26487966933942 39.71519365297786 325.98964802267375
C 36.290690734237806 42.05736928195927 326.3026557514794
C 32.86765933127758 40.448882207951854 326.0082207223601
C 31.384333322231974 43.359667366152415 324.06480338466037
C 34.2425231623762 43.20850169794572 321.5662503177365
C 33.26728541344362 39.62855624766816 320.7139414390308
C 29.66898775486302 40.65701866382272 320.0428064165697
C 31.010304419383427 43.153387780910506 317.50405000898525
C 33.4122255115328 40.56477547085127 316.0787041834425
C 30.870416345070762 37.72584768077776 316.02270162677377
C 28.15744604122812 39.914290095788296 314.5270342747409
C 30.43710642941368 41.19379474247273 311.76417277260964
C 31.54348521269638 37.75043586420586 310.5853836483716
C 28.085626956059738 36.233876238853995 311.11861697194854
C 26.46642158247839 38.84372339505166 308.86370972275927
C 29.193104152473747 38.42959476012055 306.25146445376697
C 28.912139267500187 34.63276363799238 306.32703074109236
C 25.111415089564208 34.75503064875925 306.13938860905927
C 25.44970469373741 36.85636509895172 302.9913649216709
C 28.2257633421638 34.68125644540979 301.53832156440956
C 26.101679091969864 31.564208934067857 302.03106335208156
C 23.1789467882371 33.19149454420631 300.22271798173114
C 25.44773098800038 34.59361269146647 297.5118614653603
C 27.286578627435414 31.33404670800305 296.8245448539883
C 23.94498203895045 29.553602389551724 296.38790717074147
C 22.74532775264439 32.231800916292165 293.9598884002777
C 26.089261979698552 32.118984303880715 292.1223699336104
C 25.902495213698398 28.338741864077825 291.7360190756579
C 22.232220993319917 28.518286864139146 290.7098512154385
C 22.97957392907319 31.156697267709376 288.07374332570356
C 25.89251999243552 29.02539895007784 286.8636271536596
C 23.473467029516524 26.186100111891598 286.07497538828494
C 20.8806299055369 28.41179630604701 284.37765669700786
C 22.83011173686181 28.560216969459585 281.10553970419653
C 24.448926672838223 25.125178886828905 281.2084692158632
C 25.20578418083299 22.28239628087921 283.526065493777
C 28.6259593572976 20.758530291516767 282.94832194134693
C 27.847470370636298 17.0329083040641 283.1945298967825
C 28.969042160589932 14.470435809575662 280.63193522765397
C 27.52824668522712 10.965205187150023 280.3675123768292
C 29.44972134513563 8.079248690877842 278.8203237184841
C 27.713002858034386 4.760906420588116 278.10815661897897
C 29.886378270486887 2.0037856240291068 276.66530836100634
C 29.354500099783493 -1.5595811879754307 275.53936488628494
C 32.486743650484016 -3.71512791829039 275.58955492203813
C 33.25970269700401 -7.424484771637624 275.9790439155721
C 37.06440097391925 -7.528940594616268 275.7578248769999
C 37.52979565792174 -4.027997674350423 277.1911453509794
C 38.756521418444954 -2.0959813758730386 274.1458820680848
C 35.75380522642096 0.225602864714268 274.1764965008557
C 35.92573538713659 0.41286031062841955 277.98472915958735
C 39.54919062612706 1.549535890750523 277.77192577036243
C 38.53670147497581 4.016472492344104 275.0540109271389
C 35.758155163443696 5.457634123238097 277.2165453798072
C 37.9918842045434 5.675034111414496 280.29787563011536
C 40.56429828133595 7.579469427518016 278.2331924470707
C 37.92370176279564 10.032946213936418 276.99770635345135
C 36.64299278025903 10.258270782483438 280.5756485439329
C 39.87093536820054 11.69414874669382 282.0000785765688
C 40.367497302267935 14.261911956198489 279.22004855470016
C 36.88251636109228 15.649807925959548 279.8745206777569
C 37.411131036690136 15.435281354794334 283.6413033715951
C 40.46882870755403 17.68263047937377 283.31857812343344
C 38.612574543936326 20.07520194191051 281.00391508083607
C 35.93451183932211 20.896341285155156 283.5873179868521
C 33.160316774906434 18.347470452337223 283.0224779873508
C 31.49242425346239 16.38116987484543 285.80703601224985
C 31.992224210624954 13.047186447453038 284.04270775121074
C 29.69222276853194 10.073400731956804 284.7181338850271
C 30.848105400153838 6.829319290431039 283.07990138513736
C 28.517355207840005 3.8186992280559244 283.0596055817553
C 28.465183799774834 0.37832678245613893 281.47012214428395
C 25.522082390391997 -0.1442520921904988 279.1152002714802
C 24.5339800406103 -3.325237280206767 280.9768900446529
C 23.720723675097958 -1.3079043164609556 284.1246472549668
C 21.503587320293164 1.500449273553759 282.76541245628243
C 17.814714401874525 1.9386090608683986 282.00607083481924
C 17.010899630652727 3.7834161072649906 278.78751574224435
C 14.072654677240104 5.80494112111106 280.12037433944687
C 15.224533655280261 9.356160050576145 280.7948169027898
C 18.85974880457996 8.241593382097198 280.8030282339115
C 20.273910497065433 11.403558807071066 279.2178722376775
C 18.387832114608866 13.794849080715512 281.50705536497844
C 20.57731204639789 16.118323909850865 283.54938699321553
C 23.50666971877103 15.770657008118535 281.13446555225005
C 24.27459468087199 18.221156794890977 278.33812344523403
C 26.946802987521707 15.997143933969447 276.78802846452805
C 26.377330475621942 12.29251841932803 276.1186813039944
C 28.94982760217907 9.965794134746885 274.55606132855655
C 27.772992747772165 6.535011418613724 273.44507317130467
C 30.441961557084205 3.9279466830760748 272.7257893011113
C 29.871107543347556 0.4711375190625065 271.3030839965437
C 31.919811749774315 -2.231417049573099 269.596380216024
C 30.768189822730648 -4.102400321304849 266.49148381938033
C 30.203286223410135 -7.87284738001276 266.4900358693452
C 28.929905268026975 -8.731827359014465 263.0252807843556
C 29.77497965540074 -12.4341977252239 262.7377421420205
C 28.286815644666124 -12.53176837157701 259.2453951690228
C 25.963304591325656 -9.51911031260074 259.62942385036246
C 26.262213163158687 -6.290979865072973 261.64287832642196
C 25.557785186248214 -6.409946626566378 265.37002069217283
C 26.049366774814853 -4.134007657734907 268.35458056311217
C 27.83463490543788 -5.3326248589000445 271.4638473279303
C 25.216291529896193 -7.295982232004706 273.34537323621277
C 25.078188024079733 -5.113867778891954 276.45649284400986
C 24.233335439470412 -2.093446626692795 274.28660002558036
C 21.297184496401172 -3.5539301764281084 272.3417053207779
C 18.636688883734077 -2.954821611626105 275.05956986911957
C 19.634403840935803 0.7154218569458091 275.12135135860893
C 19.754356283439325 0.908315996536025 271.3336068441485
C 16.281175341967245 -0.6038228084245851 270.998656416655
C 14.787121023208012 1.9700043188594392 273.3962571331929
C 17.00722056305447 4.904592663646005 272.4598646187242
C 14.027823667623553 7.191607207999586 271.7871001399236
C 13.24820815826118 7.10940730052911 275.5341324213504
C 16.6184925465848 8.553519190666787 276.5766517391104
C 15.886057983231252 12.219884047282324 275.8622251422078
C 18.297948192157246 12.565662158674364 272.9252963708719
C 16.328634233783497 15.164593699202516 270.947661692659
C 18.065215245333537 18.524131727320892 271.12647534847946
C 20.88419101671888 17.132741511110385 273.2540868634829
C 24.581121770747046 17.15313684500277 272.3534655623338
C 25.892674175849052 13.646355873655189 271.62578558422297
C 28.789723232014737 11.892833411652957 269.9239185181557
C 29.69326068480488 8.270280792863742 269.3089595426862
C 32.81381562347293 6.13491794803477 269.5166424595198
C 33.5447340705213 2.4538803196470504 269.1009509377377
C 36.19441883080824 -0.21274242190116197 268.5955082812321
C 36.248517255465174 -2.376664769527424 265.48828175943527
C 38.560048967905786 -3.940037217345798 262.9248199158126
C 38.85601615513727 -3.0476773614581387 259.2521727478733
C 39.09323811887912 -6.653729172081578 258.01608770072147
C 35.32493926366397 -6.920861505647494 258.52635410733126
C 32.9684048336943 -5.672019954405791 255.8530908497737
C 31.396101441502598 -2.9432904730775977 258.00559633114693
C 34.1896597684443 -1.3264759153663672 260.00445187879063
C 32.63572668020931 -0.03330493405712939 263.23541830686855
C 29.15040210358007 -0.5280778025884856 261.822476381884
C 27.87869528095886 -0.11637827335938133 265.38421036709724
C 28.76349256519628 3.582449016165945 265.60016602103116
C 27.16386744784954 4.078353226979335 262.1786670331564
C 23.92164586411042 2.530885622528795 263.4235240011235
C 23.96402115418564 4.5452312666454375 266.65433149797184
C 24.69528885719874 7.8446591454613435 264.89627388562593
C 21.958735855023995 7.286949519120703 262.30045381413606
C 19.40925932602398 6.639986018704667 265.04370614551027
C 20.663380589678518 9.657537456088727 266.99049902704695
C 20.167586581824935 11.760837295232102 263.8559953981762
C 16.670574069258066 10.346912806716983 263.39359112327713
C 15.909455536453516 11.308894249419419 267.00983269219455
C 16.90402062254541 14.946783166791294 266.5423179221337
C 20.01620415533285 14.790722014211275 268.6966923924628
C 22.639300547325224 17.48432794965837 268.1064334765051
C 25.643744069840924 15.428194388428174 267.0007011468272
C 28.6494891806268 17.5632272030374 267.8941274885469
C 31.13353892609114 15.836558030978512 265.57464426789323
C 31.83576169001847 12.67375161233437 263.62250685552056
C 32.22449656317977 9.400908013370204 265.4423934101377
C 35.48948479515958 7.957107464486588 266.7060944259196
C 36.240897104631046 4.657950919205594 264.94196971539463
C 39.1921351764489 2.769457171005459 266.42977710208424
C 40.868805055245474 0.0997375946690254 264.3042357511934
C 42.64687535441407 -2.7113751199306426 266.1006105962272
C 44.075159991218705 -2.098806779566047 269.5505984939133
C 42.92713014564717 1.2214143269732423 271.06522121279943
C 46.098214831062435 1.5296373130293066 273.1419463794593
C 48.070659816015485 1.7798115999781565 269.8743488562969
C 45.79949773575911 4.645661763172064 268.70921447884854
C 45.68489930616194 6.743739554239593 271.89101745926985
C 46.60810655741278 10.017085107796744 270.156531001294
C 43.35930724035013 9.861280672042158 268.17662857592654
C 41.19419287512676 9.03799131525091 271.2044979952437
C 42.62343162934031 12.007971956234 273.09994039206805
C 42.40869849448671 14.178059421618483 269.988046709484
C 38.76185088422466 13.232446990149574 269.48129165911007
C 37.94887702062992 13.899827050903152 273.1409410491478
C 39.54621710693484 17.326985391913443 272.7316908890526
C 37.244301276510754 18.159737046586642 269.82294752613933
C 34.156988463753876 16.872021858339764 271.65355867111685
C 35.21559059591776 18.952409389046476 274.66992188803533
C 34.10049654192135 22.14875381446214 272.939918064022
C 30.451057121005636 21.071090379026828 272.87616786587313
C 29.84067558796101 23.353130666222203 275.8789252320876
C 31.68275505258786 26.71111811894507 275.76841474539333
C 34.735778029495165 27.146912906168943 277.9888744053169
C 33.184892347208965 30.103211619296584 279.81938861020933
C 30.154337058876116 28.071274242191766 280.90391400419185
C 32.26373575016609 25.194372022302755 282.21825913976267
C 34.73851362798524 27.580364029389123 283.84894110940877
C 31.949197332640498 29.51362370518927 285.5655659982242
C 30.589170345709732 26.218726182861676 286.9246364043945
C 33.863880392830225 24.931169939719787 288.35520233864065
C 34.543052863727176 28.36760662080281 289.84904186167586
C 31.097478028777573 28.255228123056465 291.44705062380154
C 31.59769058157841 24.634404192276996 292.5380140994438
C 35.04115926342868 25.403855434833332 293.9745228169096
C 33.79061044355086 28.355116798044453 296.0286492875714
C 30.962204276526588 26.410220256333794 297.6661394122864
C 33.45564185031087 23.73408614061085 298.7019470783321
C 35.77434969833234 26.311417248789784 300.2886533831611
C 32.7473672520915 27.726938964398528 302.1054344859562
C 31.37844639197422 24.408607450135275 303.39290686981826
C 34.821914508161086 23.39528939562809 304.6532509578394
C 35.14724866971123 26.76121215711935 306.3937442034084
C 31.772523116592883 26.339981027190973 308.11223757059383
C 32.605373333992524 22.785354674941736 309.1903124565306
C 35.927731812831375 23.69582156171418 310.7996126434655
C 35.47080626234017 27.21378911718575 312.1645506534106
C 31.71752330650418 26.974156965794545 312.7211882722501
C 31.853807007836572 24.97619080764307 315.9624224728266
C 34.37956556333539 27.3743545081551 317.506262449402
C 32.103830783834056 30.285685122924814 316.5943130710141
C 29.209587295203654 28.510197928835847 318.3078766075674
C 31.39353768231465 28.217466802874487 321.4115898414069
C 32.06147681213166 31.960890893429532 321.31445399350855
C 28.317912120204937 32.552748849472835 320.9721593055225
C 27.772035590529562 30.478566144889374 324.1148173971274
C 30.341616051463287 32.689311687638174 325.8548827707984
C 28.896183056592506 36.13051496471045 325.1066621248306
C 25.160691293811144 35.68574378543049 325.68484777739536
C 25.173018770566514 33.27581837318296 328.61897306898493
C 27.791958305220835 31.436093442994476 330.64425709619593
C 29.855112311064044 28.43989762420507 329.5497926541549
C 29.410873960186663 24.80361606599444 330.5352692395889
C 32.01053380570422 22.361644071773497 331.79272705854584
C 31.27772548794791 20.363218197639696 328.6350160491987
C 31.685897048372272 23.256214702389833 326.19239132571835
C 35.08989286386031 24.09478433052674 327.70060609997375
C 36.16041345474626 20.506457726798924 326.9065138835963
C 34.980966752403425 20.21477110823074 323.29506427087426
C 36.64643526753371 23.595611071657398 322.72715951118016
C 40.05197395525021 21.89204734823744 322.8651123174859
C 39.017811015664414 19.766550582623225 319.8726036547
C 36.96076824828704 22.405927550255402 318.06142329399177
C 39.98837788053402 24.71005136984535 318.0450872091812
C 41.956504819785344 21.92419584736239 316.3474519557313
C 39.26803127439126 21.857812926439202 313.66184998042377
C 40.22130507279182 25.47869779909781 312.9882091919202
C 43.758328718558296 24.35870894695823 312.1087004750282
C 42.87060533813559 21.594076081539516 309.65850194313623
C 40.82702899760599 24.108940081291767 307.6760327799509
C 44.167545221680854 25.717084389375948 306.8217319123647
C 45.545091339121306 22.27656497628869 305.88382402975657
C 42.830158884666545 21.073877547392787 303.5084792358549
C 42.50735904807846 24.38979777811589 301.65900300625526
C 45.89649846681845 23.8876851870706 299.9404378250228
C 44.63214705509347 20.367982815703627 299.21231081439396
C 41.44112850933272 21.79674226180166 297.69469740764686
C 43.4030049050637 24.207119696698125 295.50290361550014
C 45.47964180650685 21.322332785136354 294.1491421083396
C 42.52150864872468 19.123333737435217 293.2068084501675
C 40.42602640765262 21.758597352947792 291.40591505784465
C 42.83766143938753 24.372425680412302 290.01405623193165
C 44.18835369424203 22.572648585425227 286.9514111767592
C 46.440511550986834 25.54938759408271 286.1579091659848
C 48.10199087407234 25.439058279977385 289.5840033738424
C 49.11167564517452 21.811292658105316 289.0318919175135
C 50.91667164501397 22.764518932395728 285.82240932233714
C 52.63315131473035 25.752066445474732 287.44620032423046
C 53.75421591253327 23.31412523351236 290.1514799593786
C 55.16956162864559 20.859597091833507 287.6055951308463
C 56.865063148010854 23.832523690815794 285.91150989400967
C 59.22372644665568 23.840048780241517 288.90463870738563
C 59.36955275897339 20.025876141643703 288.6572839427962
439
Mode 10 - Frame 17
C 49.20482399291902 36.08110901377815 337.408314924175
C 50.626302842453455 33.89493388503627 338.74941330799703
C 50.45797732663355 30.653984595483657 336.80455065841096
C 50.23674908255187 33.02605469543566 333.8360266194845
C 47.49661520092976 33.95000605576123 331.3822804945545
C 49.0115734145399 32.20773416257185 328.3642289844613
C 47.89453607761946 31.386041771095677 324.8370493495066
C 46.976274127545636 27.71162280656495 324.3653565524297
C 46.682404568203445 27.209874917433524 328.1479761732361
C 43.33457475672644 25.420804224147926 328.1307992586372
C 41.557884179731616 23.366550046810957 330.80399242763366
C 43.1299997007977 20.115933874034617 329.48577579533213
C 40.9488004014454 17.463415923620015 331.0948460773531
C 43.18071324564027 14.388248000243806 330.74371578862883
C 41.765836341674756 10.896906924489008 330.2299756070582
C 45.249212678736335 9.434919672292859 329.6517452599388
C 48.820188445755015 10.564144785714713 330.3358332979554
C 51.63658395090797 10.978107863643732 329.3476466131978
C 51.20834893991254 9.232790365495678 325.99372603973507
C 48.484273930138116 11.759600375565645 325.21722025212085
C 50.73548179878487 14.612783325351796 326.3415300291047
C 53.66694127485538 13.206719057309503 324.3681279330266
C 51.83272819224893 11.830099460698632 321.32659639673875
C 49.35135204937118 14.701911963271696 320.96405652930747
C 52.23145086822188 17.162821831957768 321.286699380522
C 54.30587041543644 15.66779786624875 318.4629012263394
C 51.14814813209332 15.02639751610183 316.4351345348565
C 49.81872894358694 18.57625725812906 316.78187198448677
C 53.23237236751357 20.141291938545134 316.1676972551066
C 53.777705384373334 18.032108183621812 313.0410196468938
C 50.30560027667575 18.91931692604776 311.7583883162618
C 51.03192185238912 22.609119640673313 312.2875573453237
C 54.42225098047084 22.651158478365492 310.56727124922276
C 52.96107448302983 20.686261270363 307.6508019154301
C 50.359265428823875 23.431589275321855 307.18939658432254
C 52.91628334284245 26.249082037678793 307.2749075181324
C 54.97563317087223 24.539344535411022 304.5739355311935
C 52.06716281907073 23.52012589153526 302.34882895541097
C 50.5512846579565 27.01120378078498 302.5050969823231
C 54.03993414484535 28.404686111758398 301.9365035698791
C 54.12289186385259 26.12736649480169 298.8850278767801
C 50.914226870574815 27.686680461537986 297.537710433536
C 52.34156387707748 31.1668173190138 298.1206594267565
C 55.4300666887949 30.125145067603185 296.14504455008534
C 53.9201466385448 28.8352365096542 292.89125213376667
C 51.719683258926295 31.936138987951082 292.61818519411565
C 54.43625388398412 34.55443331053082 293.117722391129
C 56.80702783803804 32.36856656835106 291.0830249243049
C 54.74469977633151 32.23247290545747 287.8783137419277
C 53.50027328426168 35.29700124107207 286.00867851101145
C 50.621977006975804 33.466158163359964 284.30793877311464
C 48.92062610733564 33.364770883427816 287.7401358510505
C 49.89591348115168 36.592969970995924 289.5352775005733
C 48.18084947103502 38.46522984337684 286.68297612297374
C 44.920909885609824 36.52790221787029 287.15831475871784
C 42.365660772602126 38.093012899380405 289.5480481421366
C 41.263996131167694 34.59450808371592 290.605094507918
C 44.69268018292161 33.843122535443214 292.1042044869323
C 44.65469597093968 37.067240655233405 294.09438444220064
C 41.842881666425164 35.18879541766906 295.8705300691199
C 43.717545103622335 31.91675785742051 296.4564705641681
C 46.92785432164087 33.68780102467834 297.44497997425594
C 44.940572849834574 35.81092939214859 299.8907031739303
C 43.41552185979738 32.68317281493705 301.44202398948727
C 46.73993699464088 30.844081589089466 301.5465857038979
C 48.53916615476121 33.728008089289965 303.2647188502711
C 45.60818795047935 33.908671278997325 305.6850087036305
C 45.885568912110884 30.165656703689642 306.3262869037965
C 49.64145830169466 30.641352086493264 306.7336554973388
C 49.33832117037066 33.581228812936274 309.14523023945003
C 47.30828331200978 31.352178555691665 311.45433859731475
C 49.303263980686054 28.14931945789073 311.0215403517189
C 52.48485079203443 30.10825485984239 311.78094576053036
C 50.97845436458868 31.522745493414913 314.97831467880593
C 49.865565974522 28.01357766885255 315.9129298394157
C 53.31936135182414 26.446197499910753 315.6364439109758
C 54.94945983849302 29.482566811046016 317.246580119186
C 52.63228308074586 29.56823144338655 320.2654257461413
C 52.715409607414266 25.767901611136065 320.53702011942147
C 56.518052421004256 25.55144883641906 320.6731618644135
C 56.70394207153714 28.726645208122235 322.7802738628378
C 54.50476450353415 27.275557089415447 325.55506017471487
C 54.410266456851 23.46352081226309 325.32840290554367
C 58.20927157582879 23.256418744140486 324.92237202425025
C 59.7006952294057 26.34695341338369 326.585248596284
C 56.79210215212302 27.0540392838989 328.97423452212655
C 57.39102848226719 30.789639756614662 328.57485050127934
C 54.87508028699405 33.319803322530475 329.87239962630457
C 52.69996499967644 35.6935741235944 327.86275907490835
C 52.186573665915404 39.30565020556183 328.8920057378793
C 49.02002089082385 41.17672788778306 327.8987916955599
C 50.28615198091479 42.44875588819011 324.54085674065976
C 52.15162675430285 39.2843225700009 323.52388839558563
C 48.970825130143375 37.3122370297628 324.2274026282314
C 46.60892375152278 39.55188877360067 322.2459573164441
C 49.04914076471383 39.69449292861018 319.3277205168263
C 48.94250726689405 35.89876182782457 319.0512216210367
C 45.15559525382156 35.82796373199583 319.40354360973555
C 44.754925256247645 38.79556043836278 317.06505133673755
C 46.84514899743122 37.0359825582256 314.4399770336803
C 44.50398568438101 34.046484551154975 314.5399932595855
C 41.5447420782824 36.434008607636656 314.5768264786781
C 43.00916287900036 38.24935849628797 311.5629900368578
C 43.558006528691834 34.95542643319215 309.72880404058674
C 39.857137291193915 34.091660541277506 309.8963605438914
C 38.7608492365174 37.66976060912199 309.2236253205109
C 40.73825768111798 37.86227747914382 305.98178295508865
C 39.43518591658322 34.399541322226604 305.0723434566952
C 35.833861198140546 35.59946997021674 305.36609830327626
C 36.83222508639957 38.893612071504336 303.7561067039542
C 38.274095853151785 36.966791641834675 300.8111249977331
C 35.099524009221746 34.90916178530958 300.3496928985977
C 33.22950423577807 38.22184795066154 300.38380113478667
C 35.32253676979809 39.69883030980671 297.5687283653884
C 34.89508764992857 36.47561255850718 295.5992194541165
C 31.114309297144732 36.81344886949017 295.8509494083501
C 31.412917436408218 40.326047510527516 294.3999932767476
C 33.51264727978639 39.05588397832987 291.49423599698684
C 30.881292664506272 36.42067754501386 290.73525036204813
C 28.109043240191426 39.01095190670479 291.013382584452
C 29.892217891633152 41.08876350164738 288.36426490564463
C 30.35752065615392 38.00214645538618 286.17737790290147
C 26.629233282542828 37.25493291626763 286.43952138227604
C 25.280387741960688 40.78271942754003 285.9446700502906
C 27.940949230906877 42.05067851522463 283.486888532689
C 29.08442238297588 38.95440605759058 281.57236454817485
C 30.080979280713063 40.966180713791836 278.4994942034489
C 32.346893586100094 43.536804152905326 280.18036818808173
C 33.407046404992876 41.41505357271602 283.1767816979559
C 36.98929290536767 41.00349271260347 281.9442182181552
C 37.538305041114334 44.770417184194066 281.74150532465364
C 35.81688656559355 45.54378003182031 285.0695114126066
C 37.61183444421433 43.08983601244212 287.379160868947
C 41.281384177259454 43.678195028205685 286.5537039667634
C 44.60254890368121 43.00884306389558 288.2523761849214
C 44.91937779442708 46.56672656640386 289.6544808617707
C 41.27933834459842 46.49008254673716 290.7749660683109
C 41.69473558171155 43.1492059966006 292.5471352814717
C 44.87212734428999 44.21006764839608 294.3674062877518
C 43.19240118404146 47.3351675244946 295.7477817406299
C 40.15212224062545 45.38116606731062 296.93675418069176
C 42.26508034398164 42.773819825961034 298.72834682979294
C 44.71245011563432 45.28356290358706 300.21533133040555
C 41.787474664691054 47.26182774702407 301.62861521116446
C 40.120880671485104 44.1093171126598 302.9099162305436
C 43.22618961460562 42.98057164181498 304.7966400666235
C 43.709897171297236 46.36068811792912 306.46661436182234
C 40.095001723313985 46.15642650325209 307.6209699504151
C 40.75415913257962 42.581620123979924 308.74814734980833
C 43.98969929611822 43.51271567869529 310.5375143951914
C 42.375350214281 46.512695971133056 312.2214106996311
C 39.892318424076564 44.29683110731248 314.05836976055616
C 42.6461405085354 42.110172590492205 315.50101134960767
C 44.61464985916003 45.14609628822723 316.65150068984246
C 41.52207940579935 46.8394046533243 318.17359831597014
C 41.48680741914312 44.37273221099161 321.0966859565403
C 45.268303000849755 44.542702696796766 321.30839803232783
C 45.040187211861294 48.3184647676091 321.25224278990083
C 41.999383023797606 49.350204188013485 323.3125959632954
C 39.15337404017842 46.90616832906137 324.00274260001504
C 40.19722869977814 44.91490836735253 327.0805818851809
C 39.36536545420137 43.53859475094722 330.48210328938563
C 42.36963416276677 45.30724792380596 331.99829171188526
C 42.07025598547895 48.64213902115657 330.20591111875126
C 38.26149002695884 48.88632059979514 330.3600537055676
C 37.60350564085602 46.95575912032608 333.60410838522995
C 34.85770443948347 45.268007993845025 331.583029090488
C 33.3577022362183 41.79716065392206 331.86638955180257
C 35.943306261905 39.232817248269654 330.83930777815544
C 35.42950533060255 36.31381599960263 328.4658212078516
C 35.202154636799726 32.87734395955016 330.072990518807
C 37.28153870539936 31.434744739920284 327.20349386510156
C 40.00544367079552 33.93492086799462 326.3371750353643
C 42.01951752826147 35.965495750726376 328.8640740131806
C 42.16007017542951 39.759592503064084 328.5129884100987
C 39.26954607371347 39.720160318398676 325.9931366092515
C 36.29708905128371 42.06441649093518 326.30615172907693
C 32.87307132262184 40.45833251599611 326.01034438849683
C 31.392302438294692 43.37082481241773 324.067484247959
C 34.2506738216579 43.218544421298475 321.5693585809912
C 33.27329612415898 39.639607431860185 320.7157980278599
C 29.67567011130756 40.670424644767365 320.0445338840672
C 31.018245895790773 43.166190451553526 317.5060104227408
C 33.41817893833831 40.576992592322824 316.080333885891
C 30.875595969871426 37.739090151456985 316.0243288842922
C 28.16265406432156 39.927955645819154 314.52897964191413
C 30.44103338815715 41.205073998101945 311.7652942894287
C 31.546818104874017 37.76137192627057 310.58766311987125
C 28.089095396735598 36.24523342908156 311.1220758648668
C 26.468737330182435 38.85206553588007 308.86630101763126
C 29.194160048186077 38.43590129757867 306.2538211990785
C 28.91514133394674 34.639231672548966 306.33184161465874
C 25.11468092332704 34.758885138826535 306.1454980052467
C 25.450378588976992 36.8567142413273 302.99553907531947
C 28.22744961781358 34.68245797812607 301.54341055091874
C 26.10615368516787 31.56440873671437 302.03877429698485
C 23.181764787687978 33.18718599845037 300.2300986506256
C 25.44843002831748 34.58846083416703 297.51746675655795
C 27.29000085167974 31.33026619383637 296.831759961653
C 23.94974633889229 29.54652809017771 296.39738135058167
C 22.74755377132842 32.22109128628153 293.96743203961046
C 26.091425100030094 32.10940634174249 292.1294177657572
C 25.907750260189214 28.32893205791945 291.7456002696327
C 22.23721380417865 28.504216762916865 290.7202281806924
C 22.982035365094802 31.141107043049047 288.08210452611877
C 25.896842439512277 29.01143603610089 286.872833554508
C 23.479651418810924 26.169938829988197 286.0864273946376
C 20.885057461985085 28.392475610467844 284.3878476452199
C 22.835000066293922 28.542254847484767 281.1156187727445
C 24.45650691203702 25.109092937020044 281.2203934671593
C 25.214184450812397 22.26651822395749 283.5385599627808
C 28.634527147689525 20.74278038832468 282.9610616499313
C 27.855570545430446 17.016563597255658 283.20555588174904
C 28.975776544970053 14.454595553756672 280.64143623818495
C 27.533264065133427 10.95010068341351 280.3737401315412
C 29.452323754430367 8.064185789547489 278.8235021745214
C 27.713005591158954 4.7474287982250285 278.10735009775556
C 29.88387112313395 1.9901924844962853 276.6608217691497
C 29.349240571597893 -1.5716125176650972 275.5301508732736
C 32.47980443826171 -3.7295946739596837 275.5776537537013
C 33.249855435560875 -7.440249079651972 275.9618725981965
C 37.05426517613799 -7.5470533943607485 275.74140038929033
C 37.521949884961096 -4.048077649573711 277.17980880700594
C 38.750325981991544 -2.113176879336211 274.13716263354706
C 35.74979378457607 0.21087865812417478 274.1702772358313
C 35.9216571583192 0.3936008223233289 277.97873238499164
C 39.54554774017176 1.5280535708700036 277.7680296041103
C 38.53545970172619 3.998754725677617 275.05306508150795
C 35.75830354550034 5.440070923419943 277.21706692389984
C 37.991773469903904 5.65307194236274 280.29871299099295
C 40.56553982154767 7.557923549167177 278.2372016640868
C 37.927241740794074 10.014725169754023 277.0041196070762
C 36.64681105686125 10.238447531242173 280.58200651459265
C 39.87469874192673 11.672296202809598 282.00780408057625
C 40.37371064124924 14.241745561102764 279.23061423454305
C 36.88970422113732 15.631454637648451 279.88553784661343
C 37.418906708059865 15.416424509004713 283.65211273161185
C 40.477271558223116 17.665063794945645 283.3306065225163
C 38.61981804395594 20.057225449162623 281.0162657106661
C 35.94169537522004 20.880410636086417 283.59909761857057
C 33.168270066841146 18.330707030023415 283.03441062677837
C 31.500480326624412 16.36316271651708 285.8175896978077
C 31.99817639337852 13.028238842228351 284.05103493190916
C 29.697217277017412 10.053701750773351 284.7230433946434
C 30.849162489016656 6.8095424271072975 283.08171967062043
C 28.51673859619146 3.799285697259717 283.05731581107756
C 28.461534385811667 0.3604696741229837 281.46354488386635
C 25.518335999122645 -0.15788129956314687 279.107741428524
C 24.5282231823329 -3.3407649133533837 280.96530935246454
C 23.716634246114218 -1.3269387187810604 284.11570326977096
C 21.50128008626684 1.4846218932724158 282.7600691150373
C 17.812528695354647 1.9258033700337032 282.00135709780966
C 17.00984735272609 3.7752073718325887 278.7851400584735
C 14.073280741943327 5.797234453900359 280.12073231846364
C 15.227912872868417 9.346750154159428 280.7994232838136
C 18.86237747320955 8.229728992930307 280.80592411947003
C 20.27860638184593 11.392617649174062 279.22444412559184
C 18.3943656330252 13.782272919708866 281.51667126225635
C 20.58526081648257 16.10237664486201 283.5612326153882
C 23.51400423402837 15.755984578606133 281.14543000484895
C 24.28281373294802 18.20791860427229 278.350673332938
C 26.95426494704583 15.98484973971468 276.79857493223574
C 26.382427983880742 12.281538638826161 276.1260268981452
C 28.95348791977604 9.955078019577037 274.56090145276823
C 27.773942107702954 6.526415681366028 273.44609943987365
C 30.44096849910683 3.9183327443428912 272.7236752203722
C 29.8673852057289 0.4636186662703509 271.29647025562514
C 31.91389395577801 -2.238509938488901 269.5862245675671
C 30.760720987685357 -4.1046957370506565 266.47855836071153
C 30.192084395066182 -7.874614020654249 266.4709442669986
C 28.917382838676666 -8.726880787261084 263.0045108026552
C 29.75774688633168 -12.429605332899385 262.70976299282955
C 28.269426032918556 -12.519115028808503 259.217084211219
C 25.949251442526773 -9.504871375989472 259.60687809159504
C 26.25189776284833 -6.281397658124199 261.62650495213813
C 25.548016808873495 -6.406070405002049 265.35378346157347
C 26.042067158198577 -4.1349712759915205 268.34174762001
C 27.826635405648304 -5.3389601796765565 271.44935690034066
C 25.207007366522333 -7.30265930696634 273.3285168465856
C 25.0707174689932 -5.124260583696941 276.4426197203495
C 24.22791844741754 -2.1005678000662362 274.27665457994743
C 21.29066686301403 -3.5567322900857623 272.3299479780342
C 18.63065359353307 -2.959432495687489 275.04863928980643
C 19.630964851278996 0.7100875055099864 275.11499329475043
C 19.75087181477684 0.9076618873056385 271.3274930998855
C 16.276561544641797 -0.6017407705683402 270.99067748793914
C 14.784367871516698 1.9700084489639968 273.391721552424
C 17.006475191243613 4.904203129845296 272.4587788590584
C 14.02861133701956 7.194100468498817 271.789108493655
C 13.249363514208959 7.107884209667718 275.5361716456554
C 16.620876156923277 8.548277919001277 276.5801438796987
C 15.890894908324402 12.215947981448942 275.87009080623255
C 18.302680124573165 12.563426492232866 272.93323015052624
C 16.33497851971607 15.166117746102467 270.9588137133898
C 18.07402774022634 18.524257697525766 271.14127434997147
C 20.89202404670229 17.127712843418273 273.2666017682339
C 24.588888581139866 17.146573642811987 272.3653863197771
C 25.898100362985787 13.6400021275137 271.6341871962574
C 28.794240036125846 11.886936332807254 269.9305346638693
C 29.695422566835816 8.264811542523141 269.31178973915553
C 32.814595600286296 6.12718912052241 269.51725684047574
C 33.54256717303396 2.4461155082880732 269.09707883892577
C 36.190037880693055 -0.22205905321591612 268.5883439865236
C 36.242317837974184 -2.382081961443919 265.478031957415
C 38.55244543406738 -3.9438979889208663 262.91221586454924
C 38.84933753780725 -3.046412528567281 259.2408624034181
C 39.08294658360445 -6.650601295038364 257.99895825487414
C 35.31436193458113 -6.914991292953958 258.5085231296451
C 32.95922902219887 -5.65960719908922 255.83692071055142
C 31.389504383114488 -2.933049003871716 257.99373476214214
C 34.184552930632854 -1.322149554940191 259.9953210562951
C 32.63164012499913 -0.03264024583125867 263.2281679701079
C 29.146005157296845 -0.5224144336217104 261.81432528678044
C 27.874578698796153 -0.11482742395486552 265.3767611785311
C 28.762051012526953 3.58287840817082 265.59745590054223
C 27.162784393662644 4.084428787453507 262.17643602815866
C 23.919394615255612 2.537470310312198 263.4192436248762
C 23.963085088630397 4.547365016231664 266.65273591748866
C 24.696521385153275 7.848158368707498 264.89844839153864
C 21.959439549652423 7.295507901311274 262.3018440896182
C 19.409507318256328 6.646666714869302 265.0443814290732
C 20.665657136164743 9.660920308371779 266.99480142502324
C 20.171016412813792 11.768332063055045 263.8626850638845
C 16.673035639337805 10.357348671414977 263.3989378876379
C 15.91276004938251 11.31548718705693 267.01636676295334
C 16.909778114995433 14.953269876644562 266.55314119676075
C 20.022137159306812 14.792368768138376 268.70691747606725
C 22.64723832090189 17.484641566342987 268.11927984562595
C 25.650193391468157 15.42742398594779 267.0109346021883
C 28.657607343324603 17.558663000204486 267.9057249476502
C 31.140748364936318 15.833266492519662 265.5848233302027
C 31.841271566535475 12.672557785200155 263.629685625433
C 32.227840309770215 9.397951161393127 265.44659480717047
C 35.491860992847315 7.950516165849166 266.7090536105778
C 36.240798706283464 4.653122507470081 264.94098445917035
C 39.19035185463539 2.760331409429554 266.4266950602726
C 40.8647934497063 0.09183629609843398 264.2977671325182
C 42.64006209002808 -2.7232093877379024 266.0906752592532
C 44.06861892364316 -2.1158353174186493 269.54160787875605
C 42.923429422499176 1.2036409370417078 271.0606512815307
C 46.09459509217071 1.5063393923843749 273.13806992158754
C 48.06746561409908 1.7585929395090236 269.8708572850937
C 45.799017422875686 4.628124995290132 268.7094195839422
C 45.68575930832925 6.7224519967763845 271.89390304109025
C 46.61203363856118 9.997084296743557 270.1637328616937
C 43.36342623362853 9.846248354145779 268.18296745127765
C 41.197246206289364 9.021725991642079 271.20975570171294
C 42.628625870414595 11.988819234085792 273.10849004610196
C 42.41606052782287 14.161859227802154 269.9986106247556
C 38.768402351934505 13.219486311864168 269.49017722813073
C 37.955453482458715 13.884360937288257 273.15044762674546
C 39.55503138206805 17.310714403845413 272.74382712535584
C 37.25415233780698 18.147053747880157 269.8353291832573
C 34.165584088510265 16.85961092374611 271.6646121728412
C 35.22476203677313 18.937500162603673 274.68227902755746
C 34.11149062979421 22.13513025559307 272.9532278418599
C 30.46163099276537 21.058744970437417 272.8887602328212
C 29.8499283062995 23.338911193681476 275.8912855695109
C 31.691127467366233 26.696886647503426 275.779330611639
C 34.74417241697974 27.132485190734215 278.0002298421417
C 33.19052717057027 30.090025856993893 279.82836689310096
C 30.16039715787076 28.05623577546031 280.9133947188278
C 32.27113341092968 25.179427062222235 282.22902620109033
C 34.7437862839702 27.56828031132806 283.8574914494322
C 31.953211221703565 29.50274460905129 285.57280132602034
C 30.595071017703347 26.206988790428603 286.9338516516764
C 33.870460079477986 24.921769500243684 288.364002490925
C 34.54788489306315 28.363405253358312 289.8548196650044
C 31.10271664141107 28.2497085048319 291.4537931015103
C 31.606001343039804 24.629052948203153 292.5466342394874
C 35.04991822309451 25.404673483059618 293.9807605554203
C 33.79693197899812 28.357141081856838 296.03309537896615
C 30.970049986800475 26.410430886408896 297.6720105027957
C 33.46581860069789 23.73608110686659 298.70763424080394
C 35.78233447478125 26.317554033014076 300.2921470959472
C 32.754412519914595 27.731662072353057 302.1087188683956
C 31.386523636088874 24.412057237389174 303.3966429906782
C 34.83043940953897 23.401303914487364 304.6563598332214
C 35.1541805377731 26.76906540356628 306.39541217675827
C 31.77876114168927 26.347613245196484 308.1134210534142
C 32.611468122706924 22.79334421049834 309.19252384761444
C 35.93416941313919 23.706170169253834 310.8001985114717
C 35.476358763154536 27.224106698178556 312.1650772406248
C 31.722805218010365 26.985782613848276 312.720412020898
C 31.856491335961174 24.988805113695623 315.9609138911605
C 34.38297529444355 27.386169065020315 317.5055571333043
C 32.10845043923389 30.29781584510784 316.59365616412106
C 29.212061513191685 28.523775340052346 318.30488972237174
C 31.394051865332063 28.229388746641003 321.40928501830956
C 32.0638453756881 31.97226209775736 321.3139318501208
C 28.320696966783014 32.5658968082494 320.9703990582263
C 27.7720696255822 30.4915393841495 324.11177388927223
C 30.342205178521485 32.70012900024706 325.85381436987393
C 28.89922699833792 36.142482965409584 325.10633901642746
C 25.163264965168477 35.69984319668914 325.68278961724604
C 25.1730367207692 33.28903281714991 328.61607842937997
C 27.79000584230066 31.446702049297844 330.64163407045
C 29.85139453278979 28.44936267473831 329.5467254847137
C 29.404059362507706 24.81281186376192 330.529788940907
C 32.001481329523 22.367997765728703 331.7867282747341
C 31.267900021375077 20.372033515808717 328.6273810353588
C 31.680060825015886 23.265982973269654 326.1870277774162
C 35.08405263887521 24.10127215325463 327.6973605296644
C 36.15028959231999 20.513589515150592 326.9003112416032
C 34.974240891476086 20.223158876943348 323.2884316663926
C 36.643026330981684 23.602889502961393 322.7244431653519
C 40.04716757277362 21.896874103137037 322.8623508405543
C 39.014761405246745 19.773771168554095 319.86839945078566
C 36.96245921563894 22.41637751412844 318.0589592024005
C 39.99065183627837 24.718707151395165 318.0451706069027
C 41.95985646212807 21.933946087269938 316.34692786362695
C 39.273798953150354 21.868153276106835 313.6607502222214
C 40.22733458364755 25.48892805304131 312.98840924114967
C 43.764380841747034 24.368949861547158 312.1084140407349
C 42.877878286500184 21.605624380368283 309.6570693585459
C 40.83470708948919 24.120358323736216 307.6760641272607
C 44.17476068096827 25.729596928150297 306.8214755414455
C 45.55378534309792 22.290493393223052 305.8826994550557
C 42.83987377732543 21.08619228417118 303.5079812316018
C 42.51630906084621 24.40203623191757 301.65900588112277
C 45.90558180505824 23.902684856200334 299.9399002197897
C 44.644719520792776 20.38135451526401 299.2126080447075
C 41.45272694460856 21.8070150352155 297.695364335233
C 43.41257254776727 24.21870970449379 295.5028114434655
C 45.492687400608695 21.336039158785916 294.14927800586287
C 42.53825208548427 19.13130325055481 293.2094941575863
C 40.437527203581716 21.762037484309754 291.40870271367345
C 42.84498803711016 24.37952682295822 290.0141100062581
C 44.196342291960214 22.578050300562452 286.95084808791955
C 46.441957039942324 25.5621900860632 286.1568660066505
C 48.10676362299884 25.456327326466518 289.5820940098288
C 49.121884713427484 21.82974213447498 289.0298759683474
C 50.92305170712673 22.786053679387937 285.8189755745181
C 52.63616490188529 25.776037367000068 287.442566712525
C 53.763029045465984 23.339108668957454 290.14620117102044
C 55.18061795864051 20.887900648731286 287.5985138900072
C 56.86990501215795 23.86362594027695 285.9033908463911
C 59.231115210516904 23.87452205580524 288.89473025297747
C 59.38346949254776 20.06114061894621 288.64512363831057
439
Mode 10 - Frame 18
C 49.202074898359776 36.07180991554096 337.41335147871257
C 50.61976077161096 33.88288608321043 338.75404853071996
C 50.44772936136067 30.643294740852955 336.80746651960754
C 50.232186143906496 33.01762166855954 333.8400445926163
C 47.49421829276037 33.94555750229102 331.3855212239944
C 49.008267656399674 32.20316458267181 328.3670016605719
C 47.89165882479014 31.38427986483449 324.83885181581707
C 46.971054649694665 27.711009783469336 324.3659603876998
C 46.67501752821759 27.207148490643917 328.1484106922541
C 43.32815372169861 25.418491454920385 328.1329355281775
C 41.551600876589276 23.360563137688406 330.80220855736866
C 43.12154219443863 20.10878244125606 329.48077962230644
C 40.93535780803689 17.457814437829008 331.0867653142771
C 43.14720123633079 14.370553395167127 330.711540285979
C 41.71412900441037 10.888853245988477 330.1694277622035
C 45.1905508600058 9.41262767122817 329.5870887577084
C 48.765967089361354 10.521032117750677 330.288130729992
C 51.586544767843876 10.934533635842357 329.3109890698005
C 51.162211271737974 9.206879807523022 325.9477562280828
C 48.44834074603772 11.747404120368707 325.17681192555784
C 50.70676314066046 14.589095258155945 326.31906458815325
C 53.638872265876806 13.185228007327671 324.3485993834252
C 51.81168633336017 11.821241235051863 321.2965933743054
C 49.33681963348058 14.699202026507248 320.938264447476
C 52.220078313390964 17.154730276652437 321.27454719489674
C 54.298690735655455 15.664592017153877 318.4512840122183
C 51.14554331995293 15.02924520984272 316.4142735491819
C 49.81816316472305 18.57948764445732 316.7680161295687
C 53.23342836737538 20.143202387278162 316.16088562225445
C 53.78380599227727 18.03972346221469 313.0316807692308
C 50.312544348333965 18.928360495805055 311.7469879179956
C 51.03811881559781 22.617630268893205 312.282018809855
C 54.4294846965934 22.662357143633603 310.5638309897748
C 52.97090038517011 20.700621565237384 307.6444819943984
C 50.367395826076255 23.445205323564 307.18556698974476
C 52.92353146426257 26.263362551621817 307.2735309774378
C 54.9839272592686 24.557302892864193 304.57123608509795
C 52.076137791974666 23.537541800250175 302.3456369448764
C 50.55808823986259 27.027318985232604 302.5038047768583
C 54.04569145482841 28.423241638254453 301.93494722175706
C 54.12996572822491 26.147560251446706 298.88236953600494
C 50.919669355166086 27.704343223172152 297.53624616557937
C 52.3444856222317 31.185431249126818 298.11961757931607
C 55.43276712306254 30.14702076110385 296.1423936310136
C 53.92288266043719 28.85670778138502 292.88869361536115
C 51.71954226958626 31.955341225822977 292.6169322539165
C 54.433696144643974 34.57643730813699 293.1162634457948
C 56.805704854729946 32.393745756659925 291.0803652693095
C 54.74234051477971 32.25627502736771 287.87622777175295
C 53.49460830613998 35.319703163609944 286.00720003354417
C 50.61751552316777 33.48581406158793 284.30702126969516
C 48.91734380407106 33.38158364428895 287.73975119683234
C 49.890533470609206 36.611206725403804 289.53495589808523
C 48.172770218571294 38.48224689874124 286.6834106196187
C 44.915083149698084 36.54121243973024 287.15979024037404
C 42.35972315028675 38.10370163891271 289.55074032082484
C 41.261768784533906 34.603191617607884 290.6073622002661
C 44.69120244966318 33.8556405763336 292.10563088387056
C 44.65144476570513 37.0802563990881 294.0958909417104
C 41.84238386829998 35.19894222577145 295.87299164060624
C 43.719568242436054 31.928223321232963 296.45801539871036
C 46.928679726383315 33.70240157764054 297.44586131010664
C 44.94127296446625 35.82380658505252 299.8923515488707
C 43.41887002691785 32.69482298667423 301.44381516742163
C 46.7443601984268 30.85791677845017 301.5472915401933
C 48.54235598871159 33.74225568696351 303.2659290782371
C 45.61227773605475 33.9205433295015 305.68679307744935
C 45.891163647908066 30.177522266361386 306.3268597367254
C 49.647003802040935 30.65441743117681 306.7343924004329
C 49.343360505245464 33.592013660969414 309.1475583492833
C 47.31375092008936 31.36160565826152 311.45537956522
C 49.30916810881606 28.159254404442457 311.0208906259179
C 52.4901258747015 30.117270802385974 311.78359236661584
C 50.98266273771893 31.527973705044072 314.98157062450747
C 49.868488653301 28.018731177589494 315.91245348428833
C 53.32130269813633 26.449846411271857 315.6370866317103
C 54.950554773866166 29.48281911275848 317.25262496843544
C 52.630628587419544 29.565663715177568 320.2691762555839
C 52.709805310122775 25.764741941474202 320.536583950173
C 56.51228913114629 25.54452662622246 320.67679491352726
C 56.69946503709532 28.716249408628883 322.7870726395677
C 54.496202305015714 27.264231816283125 325.5582028343073
C 54.39569594159807 23.451289141458734 325.327246874123
C 58.19381308935229 23.239690391232504 324.92609862074124
C 59.68898632091925 26.326902055838996 326.5924812511456
C 56.78012925016803 27.037587148691326 328.97923528770997
C 57.38480941177715 30.77300978186304 328.5827962039483
C 54.87200015040633 33.307697404081786 329.87791900877346
C 52.7003945450648 35.6853723071276 327.8684384569025
C 52.189499768325156 39.29748225507348 328.8991302904168
C 49.0249265637942 41.1726006397223 327.9058209725306
C 50.292451380061394 42.44553135361591 324.5488052206323
C 52.15591186238808 39.28001490490124 323.53140584104995
C 48.97341804063943 37.31011691309304 324.2324782220286
C 46.61378618537107 39.55317463867246 322.25127981577884
C 49.05454492144199 39.696047718122585 319.3338278605618
C 48.94540381344579 35.900436311073975 319.0557715191198
C 45.158530965545964 35.83195371234027 319.40645633339113
C 44.76023348479047 38.80115140228365 317.06908031213425
C 46.85011169384287 37.04265166801797 314.4435278100317
C 44.50843056118283 34.0538222354059 314.5417707588753
C 41.549523644846985 36.44202468738273 314.5794199894405
C 43.01368662954011 38.257975445090416 311.56610147634336
C 43.562460683815516 34.964963872210625 309.73094243869184
C 39.86164965196378 34.10085706273097 309.89874665547654
C 38.76434312716896 37.67855654836109 309.2270195405715
C 40.740152881017025 37.87174861500582 305.98480221732154
C 39.43838454701274 34.408684776311475 305.0751670872479
C 35.83647016340038 35.60680116412892 305.36970305974495
C 36.83277040286561 38.90100651823853 303.7592700748698
C 38.27413851977678 36.974711144698965 300.81429651166525
C 35.10109263348839 34.91413017392436 300.35356232425175
C 33.228838433872326 38.22534126894663 300.3868284892559
C 35.318769575266636 39.70320602551606 297.5712782034822
C 34.89379129038251 36.47855597297812 295.6028781378413
C 31.113111598294495 36.812313297766806 295.85448788797913
C 31.407539186448926 40.324288159030374 294.4017707836766
C 33.50759390129077 39.054496959482975 291.49656666964313
C 30.8796424371504 36.41519251342068 290.7389228036631
C 28.104611238437137 39.002918250908735 291.0157785068397
C 29.884302632352817 41.08064598206823 288.36527307155234
C 30.35419141394219 37.99286402334116 286.1802168663184
C 26.626666372988105 37.24199443341067 286.44286933683986
C 25.272993212195132 40.76746029101351 285.94585855617
C 27.93157900933444 42.036291417415725 283.48683891581294
C 29.080159147117133 38.9403428070075 281.5747524421664
C 30.074293184481924 40.95112690726389 278.5006044355197
C 32.335272971118194 43.52736935350136 280.1800869528622
C 33.39860968783421 41.40929079551364 283.17801990099156
C 36.981411036568716 41.003712031253805 281.9460958521067
C 37.52419682558196 44.77149313307648 281.74217538214566
C 35.80125670147304 45.54368211850544 285.06929393019
C 37.59974237880217 43.094659391440544 287.3810129753377
C 41.26820143700415 43.687629463101764 286.5557978195175
C 44.59032973706665 43.02212695484822 288.25387900891053
C 44.90263121378184 46.58084885122974 289.6551400302243
C 41.26301932875603 46.49946691333036 290.7771765889912
C 41.683934884849435 43.15953556361048 292.549421123144
C 44.86105590580398 44.223896632406976 294.3680322614524
C 43.178780889024324 47.347260466228136 295.7494650875648
C 40.141938780179316 45.39014248608703 296.9406508845321
C 42.25888435843226 42.78486774861011 298.73072683689145
C 44.70508334994425 45.29672208820925 300.2159239387246
C 41.78011882639751 47.2719889457275 301.63245005620723
C 40.11726655615908 44.11836076548277 302.9147753166167
C 43.22493864207665 42.991063966615826 304.7987054758341
C 43.70985139968079 46.370342039341025 306.4691134540897
C 40.096782990020095 46.165073723647915 307.627188323253
C 40.75779096568614 42.59035352978365 308.752664187918
C 43.99446181927608 43.52104649337848 310.5404141147258
C 42.38307322674782 46.52057288858547 312.2264898862094
C 39.90002728593168 44.30521330214782 314.0638758490367
C 42.653770175752335 42.117371413283045 315.505022525737
C 44.62384162573698 45.15148064736355 316.65661993330497
C 41.53235262409097 46.84581652325294 318.17965126506135
C 41.49517906978435 44.37795451028337 321.10188766682387
C 45.276895247250586 44.54524110916117 321.31436183018195
C 45.05139866712396 48.320897271766675 321.2594728601967
C 42.01112676473367 49.35385607641568 323.3199832398646
C 39.162888157761685 46.91158475536708 324.00841464862384
C 40.20489762311353 44.918428578611405 327.0857372707106
C 39.37131475072014 43.541530238829736 330.4866005151038
C 42.376593317968 45.307358280866296 332.00420818386266
C 42.080162678879475 48.64309115274361 330.2129935539585
C 38.27150089805064 48.89002430598047 330.3663093599097
C 37.61129783756213 46.95876777311259 333.6094981290435
C 34.864694876601476 45.27379817585698 331.587048163525
C 33.3620209431839 41.80390903854423 331.86878857553154
C 35.94611333613029 39.23807739977164 330.8416704023975
C 35.43106564055062 36.31996584509991 328.4675221226298
C 35.2013332196823 32.88283856336034 330.0738765482999
C 37.28044312187645 31.439527491246185 327.2050490714696
C 40.00564115971581 33.9384466436006 326.3390334475801
C 42.020193017883216 35.96705179643298 328.86677770771473
C 42.163662411493114 39.76119161564573 328.5169893752813
C 39.27379526885909 39.72468292915085 325.9963132917597
C 36.302915313980286 42.07083363007923 326.309335141796
C 32.87799944404143 40.466937900323636 326.0122781840096
C 31.399559059576156 43.3809847048548 324.0699254233054
C 34.25809575492326 43.22768925485741 321.5721889437447
C 33.27876943524525 39.64967056279743 320.7174886246466
C 29.68175501829149 40.68263203713764 320.0461069038735
C 31.025477348595604 43.177848473787925 317.50779556177844
C 33.4236000870974 40.58811741758211 316.0818178815283
C 30.880312499943606 37.75114865252457 316.0258106535932
C 28.16739645368028 39.940399399981644 314.5307510796393
C 30.44460924928968 41.21534480929278 311.7663155347905
C 31.54985301315177 37.77133022780484 310.58973879065644
C 28.09225373452662 36.25557520697189 311.12522550853663
C 26.470846033825275 38.859661830901 308.86866063259566
C 29.195121539427618 38.4416439864253 306.25596723485563
C 28.91787499463043 34.64512141952255 306.3362223624393
C 25.117654768681856 34.762395010489996 306.15106117863274
C 25.45099223326308 36.85703216792958 302.9993400304016
C 28.228985128611807 34.683552085403555 301.54804454639736
C 26.110228218399786 31.564590675605128 302.0457958294164
C 23.184330838254375 33.18326266685643 300.23681943603646
C 25.449066569535063 34.58376958898702 297.52257089547044
C 27.293117105111847 31.326823684109957 296.8383299881674
C 23.95408467705641 29.540086282706856 296.40600847239944
C 22.749580768353983 32.211339172190065 293.9743012247611
C 26.093394822256332 32.10068471649092 292.1358354723563
C 25.91253546872429 28.319999317126662 291.754324837772
C 22.241760222783505 28.491404627272416 290.7296773725859
C 22.984276731499406 31.126910693646856 288.089718176666
C 25.900778429551615 28.998721504411435 286.8812168386511
C 23.485282880395044 26.155222479859404 286.09685551142746
C 20.889089163881994 28.374882320370297 284.39712745129776
C 22.839451344843347 28.525898664997666 281.1247967019837
C 24.463409424769377 25.09444518376901 281.2312516068876
C 25.221833677831164 22.25205977651368 283.54993733876074
C 28.64232891762283 20.728438636769656 282.97266233935596
C 27.86294650787498 17.001680221692805 283.21559606644803
C 28.98190882822778 14.4401715277323 280.6500877918418
C 27.53783285614095 10.9363466280832 280.37941108137085
C 29.45469349011029 8.050469617076898 278.8263964543313
C 27.713008079923046 4.7351561696808115 278.10661568517736
C 29.881588132311144 1.9778146668262397 276.6567363100233
C 29.344451282062934 -1.5825681622288357 275.5217606575484
C 32.473485640205226 -3.742768000365938 275.56681663315396
C 33.24088858824808 -7.454603948137276 275.94623651683975
C 37.04503558965622 -7.563546782969751 275.7264443657976
C 37.514805579044655 -4.066362334398197 277.16948582945
C 38.7446844609418 -2.128834984374996 274.1292227775165
C 35.746140993723 0.19747089871228976 274.1646140166517
C 35.917943551716654 0.3760632671409389 277.97327176403826
C 39.54223055373088 1.508491920820829 277.76448178240486
C 38.53432895170084 3.9826210514231404 275.05220380109984
C 35.758438661162046 5.424077996655176 277.21754183829836
C 37.991672635716625 5.63307334501847 280.2994754859443
C 40.566670359370335 7.538304023220009 278.2408524290264
C 37.93046521997008 9.998133214517859 277.00995947091695
C 36.65028795279703 10.220396617477958 280.58779603815253
C 39.87812564368805 11.652397429375215 282.0148388704261
C 40.37936846421554 14.22338218294761 279.2402352686198
C 36.89624943615998 15.614742261834754 279.89557000342444
C 37.42598717995853 15.399253597277328 283.6619556591486
C 40.48495955891971 17.649067695119438 283.34155949849
C 38.62641392434982 20.040856180750197 281.0275121077018
C 35.94823665270462 20.86590429860182 283.60982406872427
C 33.175512278782456 18.31544237505351 283.0452764046805
C 31.50781613043157 16.346765524241835 285.8271998099725
C 32.00359640931263 13.010985285594957 284.05861760434044
C 29.701765241469285 10.035763996453557 284.7275139597202
C 30.85012506673267 6.79153375385594 283.0833753886484
C 28.516177113942234 3.7816078720636277 283.055230761933
C 28.45821125501252 0.34420911632260603 281.4575556765885
C 25.514924561467584 -0.1702919603555664 279.10094945836
C 24.522981027498993 -3.3549042673614915 280.95476405525386
C 23.712910440718627 -1.3442713122417296 284.1075589394836
C 21.49917913511931 1.4702095916224616 282.7552035059173
C 17.810538406303472 1.9141425976339126 281.9970648018975
C 17.00888915581487 3.767732554831073 278.7829767774678
C 14.073850832077943 5.790216816705694 280.1210582916495
C 15.230989964740578 9.338181568376955 280.80361782211685
C 18.864771120455902 8.218925363237574 280.80856109258065
C 20.282882421643222 11.382654707410586 279.23042844070574
C 18.40031500914291 13.770821155563173 281.5254274309804
C 20.592498910858907 16.087855177036904 283.5720191559874
C 23.52068299226037 15.742623967038615 281.15541415860486
C 24.29029794421298 18.195864000597854 278.36210117279836
C 26.961059755134706 15.973654732518716 276.8081784718768
C 26.38706973920494 12.27154052758916 276.13271574474004
C 28.956820979347775 9.945320000145008 274.5653088359815
C 27.774806588207856 6.518588463221558 273.44703395284597
C 30.44006422746671 3.909578359055887 272.72175015325536
C 29.863995671159728 0.4567720515700091 271.2904478294586
C 31.908505254005455 -2.244968673466328 269.57697690519916
C 30.753919918795052 -4.1067859265547035 266.46678852856076
C 30.18188408861911 -7.8762227112511525 266.45355958759427
C 28.905980002200966 -8.722376473661765 262.9855978027645
C 29.742054847493133 -12.42542353260778 262.68428537550557
C 28.25359117423528 -12.507592983490937 259.19130445129576
C 25.936454743640358 -9.491905500022112 259.5863480815423
C 26.242504631561264 -6.27267216757787 261.61159547217295
C 25.53912179284099 -6.402540744789549 265.338997953094
C 26.035420178424747 -4.135848740028073 268.3300620318862
C 27.819351117157932 -5.344729078411362 271.43616201844947
C 25.198553272368212 -7.308739404668918 273.3131675362312
C 25.063914833845388 -5.133724198974773 276.4299869510936
C 24.222985772387716 -2.107052290672722 274.267598326799
C 21.284731951692667 -3.559283875160088 272.3192418240649
C 18.625157900539296 -2.9636311344251935 275.0386859808273
C 19.627833331379687 0.7052300824473356 275.1092036863244
C 19.747698882013438 0.9070662600209726 271.3219259671722
C 16.27236025310624 -0.5998448814763092 270.98341193132444
C 14.781860870866055 1.970012209808285 273.38759148433707
C 17.005796460892256 4.903848423094155 272.4577901739099
C 14.02932858325576 7.196370814049887 271.7909372864989
C 13.250415573244407 7.106497293795068 275.53802854902744
C 16.623046655805812 8.543505253725664 276.58332379846405
C 15.895299378442738 12.212363827464113 275.8772532248127
C 18.30698898909484 12.561390710026917 272.9404545947217
C 16.340755582059202 15.167505532537133 270.96896866537315
C 18.082052336364562 18.524372405112192 271.1547502170972
C 20.899156748952898 17.123133773832034 273.2779977528621
C 24.595960984295 17.140597236857133 272.3762412780277
C 25.90304141099459 13.634216450770575 271.64183764534215
C 28.798353006319644 11.881566494105773 269.9365592798253
C 29.697391161474197 8.259831281462452 269.3143668962415
C 32.81530584171061 6.1201513043122375 269.5178162914719
C 33.5405940113561 2.4390449254391555 269.0935529328628
C 36.186048618196594 -0.23054271244965058 268.5818202299314
C 36.23667269181948 -2.387014818468164 265.4686985594716
C 38.54552170939932 -3.9474135804813373 262.90073870373107
C 38.843256035634816 -3.0452607805940985 259.2305632829599
C 39.073575183651776 -6.647753072106368 257.9833603014378
C 35.30473029278805 -6.909645918382503 258.4922863662289
C 32.9508735925065 -5.648304231020627 255.82219629501006
C 31.383497147943434 -2.923723193730674 257.9829337004693
C 34.179902679883355 -1.3182100014322755 259.98700659327096
C 32.627918936441624 -0.03203498538738636 263.2215658642255
C 29.142001328801793 -0.5172574094993819 261.8069029566588
C 27.87083016790594 -0.113415231347231 265.3699779995872
C 28.760738344761013 3.5832694095235595 265.5949880838031
C 27.161798172104348 4.089961150276022 262.17440449063076
C 23.917344643813223 2.5434662808972384 263.4153459442395
C 23.962232713890767 4.549307993662895 266.65128299307406
C 24.697643716477664 7.8513447368914715 264.9004284813954
C 21.960080329053312 7.303301104202311 262.3031100647366
C 19.409733138246494 6.652750110013975 265.0449963375569
C 20.667730143453152 9.664000709971658 266.9987191584921
C 20.1741395928942 11.775156746151083 263.8687766266328
C 16.675277127814798 10.366851496729845 263.40380661382306
C 15.91576911571517 11.32149066990135 267.0223166420302
C 16.91502084730249 14.95917662921253 266.5629967948441
C 20.027539711178516 14.793868290732686 268.71622836559436
C 22.654466401935036 17.484927143499842 268.1309776593883
C 25.65606609857932 15.426722462844042 267.02025311497835
C 28.664999685428246 17.554506869066532 267.9162855126962
C 31.147313229463272 15.830269240648658 265.59409231306086
C 31.8462888215079 12.67147069457174 263.63622256304456
C 32.23088510200026 9.395258672688719 265.4504205698874
C 35.49402474182199 7.94451417546675 266.7117482234054
C 36.240709105437205 4.648725789555593 264.94008729175204
C 39.18872797428006 2.752021554843414 266.4238885745815
C 40.86114050979435 0.0846414289503977 264.29187685365025
C 42.633857979189386 -2.7339855891314846 266.0816282109787
C 44.06266267331393 -2.131341384741658 269.5334210875523
C 42.92005956991564 1.187456612631592 271.05648993411916
C 46.09129898328381 1.4851244689932153 273.13454004619524
C 48.06455699620201 1.7392713758735323 269.8676778848065
C 45.79858005332752 4.612156137261393 268.7096063512042
C 45.68654242028048 6.703067696020552 271.8965306316891
C 46.61560961115478 9.978871698258006 270.1702908253412
C 43.36717696006381 9.832560030735996 268.1887395867832
C 41.2000265482645 9.006914901864896 271.2145433324057
C 42.633355709963176 11.971378899418209 273.11627530119466
C 42.42276434382474 14.147107444757937 270.00823005202614
C 38.77436807255319 13.207684408977089 269.4982683650581
C 37.96144196254709 13.870277602534932 273.15910424973424
C 39.56305759928071 17.29589815605135 272.75487829714734
C 37.2631226452394 18.135504424895245 269.84660383352394
C 34.17341120422095 16.84830961361506 271.6746774141072
C 35.233113486591265 18.923923925409547 274.69353135227306
C 34.12150176922305 22.12272473828845 272.9653476323549
C 30.471259486344238 21.04750332782697 272.90022675398365
C 29.85835376682461 23.325963041560446 275.90254080621287
C 31.69875132963399 26.68392756926725 275.78927052300185
C 34.751816287439894 27.119347414092168 278.0105700233958
C 33.19565820126416 30.078018994176873 279.8365424546299
C 30.165915441578296 28.042541852964366 280.92202779118486
C 32.27786966901748 25.165818286227836 282.2388306117369
C 34.74858752758734 27.557276962280184 283.8652773291821
C 31.956866240976378 29.49283818029098 285.57938976484473
C 30.600444128300158 26.19630080307237 286.94224299131974
C 33.87645149606393 24.913209525885108 288.3720158479703
C 34.552284905139274 28.359579517584226 289.86008089225527
C 31.107486885390752 28.24468237912879 291.45993275449644
C 31.613569064228862 24.624180142822617 292.554483678647
C 35.05789407042993 25.405418392045934 293.9864405964272
C 33.80268832490864 28.358984380520965 296.03714395865563
C 30.9771942356348 26.410622684680305 297.67735667669996
C 33.47508547833568 23.737897709168937 298.71281293112526
C 35.78960535630072 26.32314214575472 300.2953284463448
C 32.76082789145848 27.735962901381992 302.1117096040455
C 31.393878718017245 24.415198589504783 303.40004507617033
C 34.83820212503643 23.40678069324281 304.65919075337376
C 35.16049264828852 26.77621651478701 306.3969310216103
C 31.784441443659084 26.354563089466247 308.11449872458286
C 32.617017994630345 22.800619425627943 309.19453752484964
C 35.94003144689897 23.71559353881135 310.8007319987755
C 35.48141483151365 27.233501815179782 312.16555674725447
C 31.727614889640307 26.996368847555193 312.71970517185264
C 31.858935666353915 25.000291612453 315.95954018725945
C 34.38608017171335 27.3969273177681 317.5049148774048
C 32.112657065090964 30.30886199578002 316.59305798930444
C 29.21431451876541 28.53613883562769 318.30216988562887
C 31.394520076787057 28.24024478514912 321.4071862625371
C 32.06600217307629 31.982616636789256 321.31345639000835
C 28.323232828575595 32.57786924744026 320.9687961893648
C 27.772100617662797 30.503352724972196 324.109002492332
C 30.34274163349521 32.70997916935843 325.8528414914738
C 28.901998790375515 36.15338094303802 325.10604479617814
C 25.165608532283844 35.712682021847456 325.68091547102676
C 25.17305306609807 33.30106579728957 328.613442590826
C 27.788227943238038 31.456362171908914 330.639245561574
C 29.8480091499277 28.457981483473063 329.54393254169906
C 29.39785403758176 24.821185492813665 330.5247986193041
C 31.993238208104074 22.37378339495136 331.7812658242028
C 31.25895302031855 20.380060682802487 328.62042864522175
C 31.674746400896822 23.274877892328643 326.1821437678915
C 35.07873457090106 24.107179919198433 327.69440513606844
C 36.1410708740889 20.520083671681917 326.8946631592395
C 34.96811636961477 20.230796720396103 323.28239206319773
C 36.63992217722913 23.609517191538213 322.72196967986235
C 40.04279091454804 21.901269312348344 322.85983625899814
C 39.011984451355886 19.780346183539223 319.8645711321419
C 36.96399899866825 22.425893178053368 318.0567154178528
C 39.99272248445536 24.726589045460674 318.04524654828384
C 41.96290844417485 21.94282458745184 316.3464506290267
C 39.27905096103912 21.877569126103914 313.6597487901036
C 40.23282501400997 25.498243650642962 312.98859140457716
C 43.76989186274156 24.378275166657886 312.1081532156732
C 42.884500982350794 21.616140180412604 309.65576485704986
C 40.84169870619074 24.13075569534772 307.6760926719015
C 44.18133102766776 25.740990758336793 306.8212420918818
C 45.56170204223761 22.3031765121471 305.88167542520813
C 42.84872009055022 21.0974059972453 303.5075277524163
C 42.52445887979835 24.413180482247277 301.659008498957
C 45.913853029251584 23.916343449871835 299.9394106802291
C 44.656167920017495 20.393530691245832 299.2128787005496
C 41.46328839855048 21.816369350749092 297.6959716348226
C 43.421284776213895 24.229263484431286 295.5027275122562
C 45.504566627243584 21.34852008664972 294.14940175319595
C 42.55349854174845 19.13856023339348 293.2119397439546
C 40.447999747818244 21.76517004383778 291.4112411335501
C 42.8516595856905 24.385993073633433 290.01415897278315
C 44.203616653100724 22.582969064539874 286.9503353431653
C 46.44327329206288 25.57384794560875 286.1559161130656
C 48.11110965474924 25.472052399269742 289.58035535632865
C 49.13118101948769 21.846542098461235 289.02804025915384
C 50.92886134700901 22.805663069197884 285.8158488277996
C 52.638909053245364 25.797865120280107 287.43925797115094
C 53.77105422259888 23.3618584103225 290.14139434330724
C 55.19068577530984 20.91367366944137 287.5920657616868
C 56.87431397974422 23.891947430836872 285.89599769848485
C 59.23784336714771 23.905913179127907 288.8857076837793
C 59.39614197268601 20.09325220503168 288.6340505502008
439
Mode 10 - Frame 19
C 49.1997158735696 36.06383026886272 337.4176733951673
C 50.614146956966195 33.8725477472377 338.7580260604395
C 50.43893548264657 30.634121672581287 336.80996864847185
C 50.22827064185718 33.010385206143184 333.8434924544559
C 47.49216148253813 33.94174015527347 331.3883021254593
C 49.00543095317427 32.199243381697244 328.36938092092066
C 47.88918982614142 31.38276795592829 324.84039852969624
C 46.966575764964844 27.71048374238623 324.3664785446204
C 46.668678637329286 27.204808917287423 328.14878355725136
C 43.3226437690641 25.41650684514282 328.1347686818561
C 41.54620911302584 23.355425712717288 330.8006778009371
C 43.114284725939775 20.10264572720482 329.47649235762003
C 40.92382258783564 17.45300774836888 331.07983113285513
C 43.118444255068034 14.355369482381038 330.6839301740852
C 41.66975843518766 10.881942306104296 330.1174710673988
C 45.14021258256938 9.393498688211777 329.53160638403205
C 48.719439215862224 10.484036717881352 330.24719669227323
C 51.543605657971696 10.897142166985601 329.2795328751307
C 51.12262008975452 9.184645705615079 325.9083090854144
C 48.41750613112868 11.736938395113764 325.14213714735814
C 50.68211938068929 14.568768297208576 326.2997867746825
C 53.6147859761588 13.166786328228786 324.3318417449981
C 51.79363010950891 11.813639905433194 321.27084748882385
C 49.3243492260034 14.696876603401794 320.9161320110976
C 52.21031941343477 17.14778683431351 321.26411928617006
C 54.292529782576594 15.661841046852421 318.4413151677447
C 51.14330810531025 15.031688843550045 316.3963725343957
C 49.817677664374884 18.58225967039749 316.756126285645
C 53.23433453113176 20.144841761924777 316.1550404938264
C 53.789040983279 18.046258206872444 313.0236669874402
C 50.318503123790194 18.93612087100838 311.73720512531673
C 51.04343649002409 22.624933321777725 312.27726613867895
C 54.43569201878275 22.67196682726399 310.56087886966844
C 52.97933208740342 20.712944273995802 307.63905880866787
C 50.37437259906788 23.45688938704572 307.1822807773753
C 52.929751147777914 26.27561679958676 307.27234975447396
C 54.991044497223605 24.572713134130883 304.5689196641376
C 52.083839303550675 23.5524865609765 302.3428978495782
C 50.56392645969556 27.041147598971214 302.5026959227757
C 54.050631858543916 28.439164316087336 301.9336117042902
C 54.136035880072015 26.164888710510507 298.8800883879199
C 50.924339604149615 27.719499810790378 297.5349896629984
C 52.346992800177325 31.20140404367169 298.1187235598902
C 55.435084391983025 30.165792506548858 296.14011885156447
C 53.92523046744474 28.875132488574263 292.88649812582275
C 51.71942128526174 31.971818852980018 292.61585709374043
C 54.431501323629206 34.59531915258333 293.1150115106079
C 56.80456958988054 32.415352263143085 291.0780829934793
C 54.74031600948632 32.276699859775256 287.8744377804494
C 53.4897471332931 35.33918390423104 286.0059313376438
C 50.61368708050153 33.50268097911067 284.30623395108347
C 48.91452722770267 33.396010837973265 287.739421121305
C 49.885916831214814 36.62685586180615 289.5346799278611
C 48.16583733342046 38.4968493995266 286.6837834654175
C 44.910083170917666 36.552634070617685 287.16105636553976
C 42.354628018804426 38.11287375030759 289.5530505055522
C 41.25985747671521 34.61064304253198 290.60930812913483
C 44.68993439237567 33.86638242902308 292.1068548889622
C 44.648654874858906 37.09142533553394 294.09718368359813
C 41.841956702885156 35.207649300533284 295.87510393904995
C 43.721304317537395 31.938061947290226 296.45934103626246
C 46.92938801422405 33.71493045420185 297.44661759297554
C 44.94187373964386 35.83485662957941 299.8937660354458
C 43.42174312170184 32.70482011239893 301.4453521946354
C 46.74815579263359 30.86978888905799 301.5478972251862
C 48.54509321626173 33.75448168915734 303.2669675866303
C 45.61578722085091 33.93073085155505 305.6883242659854
C 45.89596454513282 30.187704221142795 306.32735129023536
C 49.651762449846196 30.66562893057651 306.73502474414806
C 49.347684807534634 33.60126824400401 309.14955612298394
C 47.318442727782674 31.3696951467031 311.4562728299083
C 49.31423449861201 28.167779678746243 311.0203330898861
C 52.49465247446504 30.125007470408402 311.7858634450495
C 50.986273983649774 31.53246008431393 314.9843645831946
C 49.87099663239914 28.02315345358068 315.9120447193186
C 53.32296858629626 26.45297757761499 315.63763815662634
C 54.951494348563656 29.48303561531286 317.25781211239325
C 52.6292088505979 29.56346032261726 320.2723946042293
C 52.704996208086726 25.762030598193544 320.5362096690969
C 56.507343596041935 25.538586610299152 320.6799124683216
C 56.69562325027893 28.70732867193176 322.79290673603225
C 54.48885499915623 27.25451348921255 325.56089958108186
C 54.383192840687364 23.440793025726474 325.3262548723127
C 58.180548011694604 23.225335628834074 324.9292964494502
C 59.6789387926185 26.30969579082873 326.59868766265663
C 56.76985518650324 27.023469411389243 328.98352649331497
C 57.37947276687763 30.758739438717807 328.58961448872077
C 54.86935705523045 33.29730919766949 329.882655244574
C 52.70076314214207 35.67833424861316 327.8733119898524
C 52.19201068527415 39.290473257284674 328.90524393827167
C 49.029136169502614 41.169059008002925 327.9118528634945
C 50.297856955762704 42.44276434912283 324.55562588863603
C 52.15958895533043 39.27631845556534 323.5378566341482
C 48.975643042365306 37.30829762034983 324.2368336384519
C 46.61795868716811 39.55427805200211 322.25584710424624
C 49.059182280913255 39.6973818981314 319.3390686316462
C 48.94788936822545 35.90187320144314 319.05967583093565
C 45.16105012834137 35.83537755329663 319.408955769901
C 44.764788527352515 38.80594906282463 317.07253761512436
C 46.85437023192111 37.04837449602172 314.44657476576816
C 44.51224475321544 34.06011877365781 314.5432960483111
C 41.553626753641055 36.44890336340987 314.5816455062608
C 43.017568503894694 38.26536973270134 311.56877143284044
C 43.56628283766639 34.973148041432346 309.7327774189127
C 39.865521752645996 34.108748687273 309.90079420104485
C 38.76734126873287 37.68610442940729 309.2299321538316
C 40.74177917049084 37.87987588884385 305.98739307562124
C 39.44112932290721 34.416530863228175 305.0775900720993
C 35.83870894187527 35.613092132958016 305.3727963363453
C 36.83323834423109 38.90735176492964 303.76198459423233
C 38.274175132422826 36.98150694716415 300.81701801862954
C 35.10243868523443 34.918393596537484 300.35688271605534
C 33.2282671027787 38.228338919357306 300.3894262915823
C 35.31553690898412 39.70696086974228 297.5734662443606
C 34.89267887164236 36.48108174557527 295.6060176899448
C 31.11208384125741 36.811338852621795 295.8575242917784
C 31.4029240578281 40.322778442392064 294.4032960796677
C 33.50325754803394 39.05330674511466 291.4985666425271
C 30.878226360999495 36.41048575444081 290.74207416154604
C 28.10080809460808 38.99602449270209 291.01783447115304
C 29.877510471348316 41.07368025953331 288.36613818852726
C 30.351334558806535 37.9848986780846 286.18265300844985
C 26.624463682922983 37.230891795378746 286.4457422492269
C 25.266647894254 40.75436627748761 285.9468784246293
C 27.92353833103019 42.0239457087984 283.48679633908876
C 29.076500822945146 38.92827499484571 281.5768015172349
C 30.068555780249785 40.938209089407636 278.5015571364623
C 32.3253012083328 43.519273260331545 280.1798456221839
C 33.39137005875049 41.40434570032404 283.1790824150643
C 36.97464752826117 41.00390023072164 281.94770706807003
C 37.51209042855967 44.77241641528155 281.74275036499927
C 35.787844562991516 45.543598098137245 285.0691073064122
C 37.589366059815326 43.098798379890916 287.3826022858527
C 41.25688919932205 43.69572524348382 286.55759457493923
C 44.57984435130132 43.03352599092789 288.2551685967982
C 44.888260809984715 46.59296732124969 289.65570566908804
C 41.249015822476466 46.50751972961455 290.77907345829556
C 41.67466670178049 43.1683994655691 292.55138262612434
C 44.85155539671323 44.23576341814375 294.3685694155757
C 43.16709318134367 47.357637537194876 295.7509095839487
C 40.133200253684684 45.39784523838027 296.9439946840127
C 42.25356752294495 42.794348078532366 298.73276914414026
C 44.69876185662645 45.30801411257337 300.2164324616893
C 41.77380670998499 47.280708369204106 301.6357407740518
C 40.11416524863221 44.126121211965554 302.91894494565537
C 43.223865170377486 43.00006753261851 304.8004778235742
C 43.709812122611346 46.37862616323793 306.47125794948073
C 40.09831151231246 46.17249398760765 307.6325243694904
C 40.76090747701284 42.59784775028049 308.75654013064906
C 43.99854858673754 43.528195246517555 310.54290239227277
C 42.38970041889107 46.52733214809436 312.23084838563307
C 39.90664233529734 44.31240614509539 314.0686006771365
C 42.6603172674284 42.123548793164936 315.50846455500255
C 44.631729170073214 45.156101018328634 316.66101280593074
C 41.54116817266617 46.85131861122667 318.18484535957214
C 41.502362864656355 44.38243581611897 321.1063513050312
C 45.284268337490325 44.547419345509994 321.31947942314883
C 45.061019325973135 48.32298462725273 321.2656770538667
C 42.021204183098355 49.35698979738674 323.3263223337674
C 39.17105231463294 46.91623264348224 324.0132818887246
C 40.211478400846815 44.92144930614455 327.0901611571959
C 39.37641989994998 43.544049209544234 330.49045962825096
C 42.38256503675926 45.30745297933355 332.00928516603415
C 42.08866370887931 48.643908186122765 330.2190710605224
C 38.280091323941015 48.89320249229543 330.3716773977686
C 37.61798439737428 46.9613495273431 333.6141231206525
C 34.8706934387099 45.27876678738033 331.59049696920397
C 33.36572686765241 41.809699893050784 331.870847201136
C 35.948522113836034 39.242591186957156 330.8436977932481
C 35.43240455769899 36.32524308735956 328.46898169415107
C 35.200628353661386 32.88755353635275 330.0746368588289
C 37.27950299099534 31.443631616695455 327.20638360918633
C 40.00581062687988 33.941472145954144 326.34062816918504
C 42.02077266210021 35.968387054394256 328.8690977743016
C 42.16674494421201 39.762563829711524 328.5204226424342
C 39.27744154455852 39.72856382544262 325.99903923392935
C 36.30791488669018 42.07634023961796 326.31206685922507
C 32.88222831298256 40.4743222643461 326.01393759275504
C 31.40578603690523 43.38970300741153 324.07202021962297
C 34.264464588074226 43.23553652551423 321.5746177055631
C 33.283466136744096 39.658305833369674 320.71893934219884
C 29.686976536180982 40.693107319309384 320.04745672747487
C 31.031682728609994 43.18785233610067 317.5093274069562
C 33.42825202759575 40.597663738382465 316.08309131262405
C 30.88435980029072 37.761496169620756 316.0270821742482
C 28.171465944132787 39.951077506507104 314.53227116758745
C 30.447677730520894 41.22415829231137 311.76719187537225
C 31.55245729747478 37.77987554324639 310.59151994395364
C 28.094963934915953 36.26444958720584 311.1279282484159
C 26.472655532939033 38.86618028557095 308.87068544115584
C 29.19594660441736 38.44657184360137 306.25780876903707
C 28.92022077546182 34.65017546870825 306.33998152473475
C 25.12020665431655 34.76540686551572 306.1558349918454
C 25.451518807395775 36.85730498384044 303.00260166694113
C 28.2303027653684 34.68449094950411 301.5520210230067
C 26.113724615011595 31.564746799137566 302.051821074716
C 23.186532791213256 33.179896017841365 300.24258660739116
C 25.449612791747466 34.5797439858519 297.5269508067349
C 27.295791192503312 31.323869633017853 296.8439677918462
C 23.95780744724739 29.534558505036866 296.4134114895738
C 22.751320154224445 32.202970788199394 293.9801957393766
C 26.09508506006421 32.093200605000504 292.1413425688337
C 25.916641702728665 28.312334045336154 291.761811474583
C 22.245661548825314 28.480410409012904 290.73778581609105
C 22.986200069819855 31.11472866809333 288.0962515242819
C 25.904155940901838 28.9878110410554 286.8884106163442
C 23.490115292374906 26.142594236622735 286.1058039799112
C 20.892548806508486 28.359785346953604 284.40509054318636
C 22.843271030277872 28.511863265658643 281.1326723723658
C 24.469332538106965 25.0818758041806 281.240569082239
C 25.2283975539635 22.2396528420804 283.55970037579186
C 28.64902369231439 20.716131840214008 282.98261700382676
C 27.869275893017285 16.988908652305998 283.22421164662995
C 28.9871710001588 14.427794130653966 280.65751177421504
C 27.541753380159175 10.924544139376303 280.3842773785984
C 29.456726983354933 8.03869963602053 278.8288800639977
C 27.71301021555573 4.724624907713454 278.10598547859814
C 29.879629075672426 1.9671931410465104 276.653230537795
C 29.340341546112853 -1.5919693074281958 275.5145609317972
C 32.468063418110596 -3.7540721599325657 275.5575171945664
C 33.2331940493209 -7.4669220004584265 275.93281904328734
C 37.03711559169167 -7.577699920217004 275.7136104565153
C 37.50867498062315 -4.082052600357398 277.16062758196597
C 38.73984341683659 -2.142271356663275 274.12240950980123
C 35.74300649835006 0.18596556990248006 274.1597543531701
C 35.914756869757355 0.3610141203972467 277.968585952066
C 39.53938404376949 1.4917058785773587 277.76143736207877
C 38.53335864410181 3.968776588563554 275.0514647280013
C 35.758554605226045 5.4103543105859915 277.21794936696466
C 37.99158610891939 5.615912354049551 280.3001297902812
C 40.567640484876186 7.5214683171053345 278.24398518594325
C 37.93323131881571 9.983895496288778 277.01497071490104
C 36.65327151102996 10.204906952740185 280.5927640846517
C 39.88106630143345 11.635322098274662 282.02087549204526
C 40.38422349715394 14.207624389475672 279.2484911715744
C 36.90186594885634 15.600401209536393 279.9041786947975
C 37.43206300178828 15.384519070849844 283.6704019710402
C 40.49155670712227 17.63534128621536 283.35095835374636
C 38.632073913494196 20.02680955225133 281.0371627504263
C 35.95384978656125 20.85345626925857 283.6190285399703
C 33.18172689131654 18.302343626097635 283.05460043442315
C 31.514111055056397 16.332694934004575 285.8354463407282
C 32.00824737772284 12.996179840769484 284.06512436933366
C 29.705667894017463 10.020371434936093 284.7313501951116
C 30.850951064036735 6.776080336113254 283.08479617639847
C 28.51569530056091 3.7664383582563428 283.0534415609743
C 28.455359644139474 0.33025577345769563 281.45241627954806
C 25.511997173622245 -0.1809416691381709 279.0951212026759
C 24.518482683429472 -3.3670373846127886 280.94571503311084
C 23.709715007075772 -1.3591445793377208 284.1005702104191
C 21.49737628849721 1.457842255343896 282.7510282793886
C 17.808830519903005 1.9041363753774911 281.993381541011
C 17.008066917722026 3.761318341631561 278.781120444988
C 14.074340031969477 5.784194913946835 280.121338012412
C 15.233630447216406 9.330828781544053 280.80721719624796
C 18.86682513244836 8.20965466347814 280.8108239048648
C 20.286551732999456 11.374105410143201 279.2355636397328
C 18.40542022667738 13.760994285323257 281.53294118456074
C 20.598709990070425 16.07539416420125 283.58127519142937
C 23.526414099684047 15.731159096252808 281.1639816580893
C 24.29672021872136 18.18551982789266 278.3719075133762
C 26.966890446069748 15.96404818791563 276.81641936268585
C 26.391052874613248 12.26296105105434 276.138455509086
C 28.95968111019719 9.936946548724146 274.569090854401
C 27.775548407340573 6.51187185117239 273.4478358675204
C 30.439288263173697 3.9020661358603053 272.7200982344314
C 29.861087078565507 0.4508969048775884 271.2852799269665
C 31.903881156581964 -2.250510976794418 269.56904139614073
C 30.748083855405387 -4.108579538505822 266.4566887210708
C 30.173131106407155 -7.877603144305031 266.43864162504326
C 28.89619511727074 -8.71851127833489 262.9693683735335
C 29.7285893562811 -12.421835089088336 262.66242278418076
C 28.240003127924837 -12.497705804293597 259.1691825884667
C 25.925473771813113 -9.480779355695606 259.5687310801576
C 26.234444294207986 -6.26518473924041 261.59880150234454
C 25.53148889303435 -6.399511909017353 265.3263103644037
C 26.02971634040523 -4.136601700455627 268.3200345150156
C 27.81310039832769 -5.3496794265475005 271.4248393619115
C 25.191298731915616 -7.313956795667292 273.2999961436662
C 25.058077426434917 -5.141845019326342 276.41914664887736
C 24.218752995949334 -2.1126166951567114 274.2598270678543
C 21.27963914654069 -3.5614734151394756 272.31005476917215
C 18.62044199290785 -2.9672340271790776 275.03014494954596
C 19.625146143684173 0.7010618804541964 275.1042355670007
C 19.744976157536296 0.9065551464525041 271.3171487564224
C 16.268755083960702 -0.5982180005992991 270.97717728649894
C 14.779709589214441 1.9700154370253622 273.3840474327259
C 17.005214035773662 4.903544045779679 272.45694177356404
C 14.029944059229901 7.1983190196578875 271.7925065914325
C 13.251318355339336 7.105307167789955 275.5396219758788
C 16.624909182016026 8.539409783214282 276.58605251769745
C 15.899078897107096 12.209288230055654 275.88339936588716
C 18.310686467666457 12.559643785507683 272.9466539605802
C 16.34571293546708 15.168696405579981 270.97768272847844
C 18.08893832039067 18.524470836808216 271.166313989799
C 20.905277390155856 17.119204429665405 273.28777675815536
C 24.60202988225742 17.13546882475641 272.385556023322
C 25.9072813723677 13.629251705262245 271.6484025701411
C 28.801882386062438 11.87695858326711 269.9417290613971
C 29.699080431687964 8.255557670987974 269.31657837981294
C 32.81591530678751 6.114112085743827 269.5182963618152
C 33.53890082212131 2.432977589499216 269.0905273185628
C 36.18262539323258 -0.23782262298473753 268.576222130923
C 36.23182853697645 -2.3912477510777257 265.46068947988164
C 38.53958039389331 -3.9504303438063384 262.8908900403594
C 38.8380374394472 -3.0442724544517192 259.2217255074836
C 39.06553349416798 -6.6453089842950055 257.9699755458248
C 35.296465287248836 -6.905059000451855 258.4783534415565
C 32.94370371698853 -5.638605044142269 255.80956113076442
C 31.378342280992317 -2.915720625307837 257.9736652043527
C 34.17591225446793 -1.314829432234992 259.9798718716496
C 32.62472574833299 -0.031515605511271534 263.2159005329289
C 29.138565604612644 -0.5128321169217933 261.80053378296157
C 27.86761351707557 -0.11220341512988334 265.3641572877346
C 28.759611931778707 3.583604931588817 265.59287042624726
C 27.160951885789167 4.094708524644313 262.17266120851104
C 23.915585543372135 2.5486114815974896 263.4120013065604
C 23.96150128283302 4.5509752815019455 266.65003622449683
C 24.698606799907488 7.854078990433732 264.90212761576794
C 21.960630188092047 7.309988527431539 262.30419641030375
C 19.409926916577298 6.657970330579494 265.0455239965098
C 20.669509011177848 9.666644032557048 267.00208100370156
C 20.176819624109967 11.781013073120453 263.8740038558985
C 16.677200570886754 10.375005963595711 263.40798451513564
C 15.91835122481366 11.326642316944469 267.02742229115887
C 16.91951968690734 14.964245271064234 266.57145397945504
C 20.032175693506847 14.795155045661328 268.7242181304932
C 22.660668888599332 17.485172200036825 268.1410156671983
C 25.661105525693273 15.426120479042845 267.02824942147333
C 28.67134312611541 17.550940452497596 267.92534763631727
C 31.152946603590458 15.82769726965467 265.6020461174393
C 31.850594176818 12.670537851526028 263.6418319728139
C 32.233497867838906 9.392948221933356 265.4537034940998
C 35.4958814758706 7.939363809119798 266.7140604968914
C 36.24063221807921 4.644952923132788 264.93931742366084
C 39.18733450674668 2.74489078776756 266.42148030190265
C 40.858005886512544 0.07846744344408876 264.28682234804086
C 42.628534171312246 -2.7432327524005387 266.07386485082594
C 44.05755155695167 -2.144647291986691 269.5263959223623
C 42.91716786662479 1.1735686863806216 271.0529190414151
C 46.088470560176575 1.4669197368085185 273.1315110257751
C 48.06206108288347 1.722691354117702 269.86494961048425
C 45.7982047422626 4.598453104808787 268.709766618009
C 45.68721441626556 6.686433838931321 271.89878539274855
C 46.618678188031815 9.963243290287648 270.1759182777567
C 43.370395494912756 9.820813947229682 268.19369271242374
C 41.20241238676629 8.994205361614117 271.2186516448872
C 42.6374144313015 11.956413178544233 273.1229559043408
C 42.42851695356456 14.134448796191778 270.01648457616466
C 38.77948731546298 13.197557081276315 269.5052114483828
C 37.96658073557927 13.858192555951236 273.16653258215047
C 39.56994497436657 17.283184189656097 272.76436141519036
C 37.27082015332889 18.12559383846614 269.85627872062094
C 34.18012772837068 16.838611849429036 271.68331449557303
C 35.24027994694042 18.912274024175495 274.7031870815975
C 34.13009242537605 22.112079443182775 272.97574774250506
C 30.479521790370207 21.03785676492095 272.91006628736324
C 29.86558373648155 23.31485210623893 275.91219903434114
C 31.705293440026686 26.672807258140015 275.7978000576584
C 34.75837556705717 27.108073760124107 278.01944303354065
C 33.200061188627885 30.06771578836594 279.84355798352675
C 30.17065073452103 28.030790964827737 280.92943591457487
C 32.2836501176269 25.154140463132663 282.24724387191037
C 34.75270752145165 27.547834881398817 283.8719584683527
C 31.96000264857798 29.484337377381493 285.58504336830595
C 30.605054846784036 26.18712933712709 286.9494436815161
C 33.88159278893325 24.905864128598843 288.37889218762155
C 34.55606059831424 28.356296616491793 289.8645956025513
C 31.11158027816454 28.24036941175838 291.4652012504631
C 31.620062999415673 24.619998741112827 292.5612193587654
C 35.064738222634034 25.40605760569511 293.9913146948824
C 33.80762790134412 28.360566133040084 296.04061808428014
C 30.983324785073595 26.410787268643215 297.6819442805459
C 33.48303747620406 23.739456553280256 298.71725681567904
C 35.79584457047878 26.32793735967021 300.2980583940757
C 32.76633298420232 27.739653484619097 302.1142759834067
C 31.400190185385462 24.417894214320768 303.4029644388337
C 34.844863386736584 23.41148037038231 304.6616199935016
C 35.16590913173909 26.782352952906344 306.3982343571564
C 31.789315766049132 26.360526818456616 308.1154234846985
C 32.621780393728486 22.806862358519023 309.1962654808784
C 35.945061715106256 23.72367982391873 310.8011897894218
C 35.48575349296853 27.241563856493702 312.1659682165591
C 31.731742115664414 27.00545299770392 312.7190986178091
C 31.86103317004744 25.010148288801172 315.95836139857573
C 34.38874449710925 27.406159079129555 317.5043637513683
C 32.116266811669696 30.318340805151664 316.59254468967396
C 29.216247844770127 28.5467480714786 318.29983596725555
C 31.394921853592315 28.249560457422973 321.40538529978767
C 32.06785294190088 31.991501967482943 321.3130483930596
C 28.325408876253928 32.588142914002646 320.96742075199876
C 27.772127212268714 30.513489867676814 324.1066243296517
C 30.343201970727904 32.71843169531575 325.85200665505243
C 28.90437729209271 36.162732603679096 325.10579232291946
C 25.167619570028616 35.72369914263851 325.6793072479204
C 25.17306709218381 33.31139141462917 328.61118075211596
C 27.786702310753316 31.464651617115162 330.6371959588671
C 29.845104119953724 28.465377367109987 329.5415358901226
C 29.392529187884545 24.828370985378985 330.52051637578046
C 31.98616470540832 22.378748099681914 331.7765784422519
C 31.251275511656978 20.38694887290476 328.6144627315979
C 31.670186041850524 23.28251070892137 326.1779527517966
C 35.07417108502727 24.112249430637807 327.6918690840675
C 36.13316020227601 20.525656370590063 326.88981648480694
C 34.96286085781353 20.237350828179686 323.27720942093043
C 36.63725847269043 23.615204475593874 322.71984715789665
C 40.039035261539475 21.905040884138273 322.85767847209775
C 39.009601520202175 19.785988267873336 319.86128601466396
C 36.96532030146791 22.43405866185545 318.05479000450015
C 39.9944993278036 24.733352575449686 318.045311714322
C 41.9655273796652 21.950443314846385 316.3460411093728
C 39.28355776011089 21.885648958603316 313.65888945145934
C 40.23753640572625 25.506237455586383 312.98874772078676
C 43.774620923479596 24.386277301709296 312.10792939914995
C 42.8901839820995 21.625163890750134 309.65464545162325
C 40.847698280511274 24.139677781094733 307.6761171663355
C 44.18696910610055 25.750767914882616 306.8210417665397
C 45.56849543879944 22.31406001990349 305.88079669523205
C 42.856311198003695 21.10702859354444 303.50713861751484
C 42.53145231873952 24.422743471889564 301.659010745346
C 45.920950647211505 23.928064022000463 299.93899060156895
C 44.665991902785976 20.403979186330908 299.2131109529612
C 41.47235128494176 21.824396379926633 297.6964927645096
C 43.42876082421456 24.2383197856847 295.5026554900688
C 45.514760307204725 21.359230092289984 294.1495079419865
C 42.56658167421787 19.144787520978316 293.21403832541296
C 40.45698633992622 21.767858123648814 291.41341937634525
C 42.85738450644193 24.39154182625492 290.01420099143473
C 44.20985885317545 22.587189903768827 286.9498953519026
C 46.44440278081475 25.58385166831661 286.15510100013785
C 48.114839026881455 25.48554623724829 289.578863400843
C 49.13915827017169 21.86095831102271 289.0264650192332
C 50.93384665552021 22.822490077394583 285.81316573601697
C 52.641263836228234 25.81659572775533 287.43641870798365
C 53.77794070518217 23.38138018474448 290.1372695576757
C 55.19932506675437 20.935789749286055 287.5865325600343
C 56.87809735772958 23.916250377456496 285.8896535663306
C 59.24361686381806 23.932850207488993 288.87796532936005
C 59.40701635119679 20.120807469499677 288.6245486255518
439
Mode 10 - Frame 20
C 49.19785001925168 36.05751882259388 337.42109178505126
C 50.6097067491572 33.864370712008906 338.76117206002067
C 50.431980025188764 30.626866297769393 336.81194768996596
C 50.225173702632134 33.004661576318576 333.84621951689616
C 47.490534662739414 33.93872085109094 331.39050166021093
C 49.003187282406664 32.19614193494674 328.37126278041353
C 47.88723698876181 31.38157212205122 324.8416218923256
C 46.963033222110944 27.71006767383519 324.36688837724773
C 46.66366493548774 27.20295844794624 328.14907847223833
C 43.31828571019271 25.414937131785724 328.1362186020608
C 41.541944534981575 23.351362302020938 330.7994670597404
C 43.10854448149971 20.097791935732157 329.4731013753122
C 40.91469888531656 17.449205930634093 331.07434659008925
C 43.095699119924504 14.343359871734789 330.6620921473252
C 41.63466384079527 10.876476146071774 330.0763762795229
C 45.1003978707009 9.378368751592534 329.48772298487336
C 48.68263831659504 10.454775462604653 330.21482019867057
C 51.50964326643756 10.86756764368668 329.2546528158391
C 51.09130571859443 9.167059796716284 325.87710864115286
C 48.39311770604343 11.728660602214584 325.1147113717172
C 50.66262756943596 14.552690828242666 326.2845391216462
C 53.595735092140885 13.152200009882465 324.3185874069565
C 51.77934866432083 11.807627686422185 321.25048395903195
C 49.31448584358604 14.69503732610366 320.89862651384516
C 52.202600679109786 17.142294966689537 321.255871403992
C 54.28765681941292 15.659665185947178 318.4334303792578
C 51.14154017777091 15.033621618704938 316.3822138507425
C 49.81729366123733 18.584452185114333 316.74672209594894
C 53.23505125507829 20.146138413946332 316.15041732998264
C 53.79318156315147 18.05142681789636 313.0173285422407
C 50.32321617596364 18.942258886022938 311.72946749320823
C 51.0476424677785 22.630709620871883 312.27350704633176
C 54.440601657273184 22.679567539969632 310.5585439107183
C 52.98600108388238 20.722690835134593 307.63476937747816
C 50.379890829340745 23.46613081612651 307.1796815704638
C 52.93467056337352 26.285309212135154 307.2714154743525
C 54.996673827286315 24.584901757721187 304.56708750702376
C 52.08993076078692 23.564307015957578 302.34073138112456
C 50.56854415923381 27.052085245223388 302.5018188823195
C 54.05453943664281 28.451758247830263 301.9325553860002
C 54.14083702463036 26.178594535180835 298.8782841296425
C 50.9280335052345 27.731487808784376 297.53399584098514
C 52.348975835207355 31.214037614880834 298.1180164414178
C 55.43691721978504 30.180639888585425 296.1383196305155
C 53.9270874491352 28.889705383106207 292.88476161857955
C 51.71932559354826 31.984851718047015 292.61500670324625
C 54.42976534515008 34.610253616662405 293.11402130114345
C 56.80367166001136 32.43244177978771 291.07627784321966
C 54.738714741047325 32.29285473949468 287.8730219992263
C 53.48590222230094 35.35459206109127 286.0049278714091
C 50.610659000292515 33.51602175069598 284.30561122688096
C 48.91229947613321 33.40742192688741 287.73916005035295
C 49.88226533226313 36.639233437849285 289.5344616511238
C 48.16035381593129 38.50839914637805 286.6840783652195
C 44.90612847233382 36.56166793045578 287.16205779846973
C 42.35059805985009 38.12012836828442 289.5548777301608
C 41.25834574103476 34.61653669546315 290.61084724809496
C 44.68893143124736 33.87487862300401 292.1078230073113
C 44.64644823001836 37.100259328453745 294.09820616883997
C 41.84161883935907 35.214536101006296 295.87677464687306
C 43.722677454113814 31.945843740422625 296.4603895401022
C 46.929948229585705 33.72484008233631 297.4472157696723
C 44.9423489186093 35.84359658575943 299.89488481380494
C 43.42401557612064 32.71272726974543 301.44656789566386
C 46.75115789158113 30.87917905271065 301.5483762875361
C 48.54725820743302 33.76415176090871 303.26778898765065
C 45.61856302354186 33.93878860155907 305.6895353489521
C 45.89976178153915 30.19575756775148 306.32774008107936
C 49.655526269366824 30.674496588369855 306.73552489202956
C 49.351105084477815 33.608588092353024 309.1511362482548
C 47.32215368057973 31.376093471553848 311.4569793514262
C 49.31824172452859 28.17452268540621 311.0198921106236
C 52.498232757194366 30.131126734392435 311.78765973880587
C 50.98913027360535 31.53600855492236 314.98657444546564
C 49.872980301095204 28.026651222144853 315.9117214094971
C 53.32428620899752 26.455454151945958 315.6380743814385
C 54.95223749866265 29.483206856508634 317.2619148479777
C 52.62808591959268 29.56171756453356 320.2749401347984
C 52.70119248214173 25.75988608000592 320.53591363407224
C 56.503431959306575 25.53388839584834 320.68237827669236
C 56.69258461560677 28.70027287703096 322.7975211742208
C 54.48304369847805 27.246826845730414 325.5630325542641
C 54.37330359962522 23.43249119568976 325.32547025535195
C 58.1700560904023 23.21398182894381 324.9318257499177
C 59.670991769703576 26.296086614698666 326.6035965808523
C 56.761728987011246 27.012303084857162 328.986920592665
C 57.37525178455883 30.74745240965112 328.59500736383444
C 54.86726651740859 33.289092717761974 329.88640133747475
C 52.70105468144724 35.67276754498053 327.8771666769825
C 52.19399667764301 39.28492953903169 328.9100794856961
C 49.0324657279797 41.16625777892573 327.9166237458723
C 50.302132458421745 42.440575806084794 324.56102064875
C 52.16249732652366 39.27339477456669 323.5429588442676
C 48.97740289206884 37.30685866335599 324.240278524904
C 46.621258898563504 39.55515078913237 322.25945956942405
C 49.06285016826622 39.69843715856812 319.34321378323506
C 48.949855300562135 35.90300969992795 319.0627639193231
C 45.16304264270532 35.83808561658571 319.41093268189604
C 44.7683913067163 38.80974373919835 317.07527214497725
C 46.857738493117175 37.05290092719192 314.44898473430305
C 44.5152615619845 34.06509897697497 314.54450246542535
C 41.55687207912139 36.45434400456814 314.5834057633747
C 43.020638845527515 38.2712181932704 311.57088321643823
C 43.56930594378046 34.979621253390334 309.73422878380825
C 39.86858436386036 34.11499051304291 309.9024136930297
C 38.76971262803611 37.69207437364011 309.2322358651153
C 40.74306547288559 37.88630409979218 305.9894422970477
C 39.44330028438915 34.42273667132874 305.0795065151847
C 35.840479688203004 35.61806793117877 305.3752429420466
C 36.833608459212904 38.9123704938494 303.7641316245199
C 38.27420409094162 36.98688204005261 300.81917057571235
C 35.103503335539486 34.92176572112259 300.35950895695356
C 33.22781521240755 38.2307098901863 300.3914810053387
C 35.31298005397914 39.70993073777495 297.57519686013785
C 34.89179901174505 36.48307948791612 295.60850089693486
C 31.111270943947723 36.81056812198387 295.8599259143317
C 31.399273753812306 40.3215843424741 294.4045025019668
C 33.49982773946135 39.05236535330411 291.5001485072268
C 30.877106325376438 36.40676297602722 290.7445667062355
C 28.097800024339097 38.99057192239841 291.01946062188597
C 29.872138258647947 41.06817076954265 288.3668224468063
C 30.3490749490251 37.97859854342616 286.18457985819464
C 26.622721480472983 37.2221102407302 286.4480145593801
C 25.26162910897953 40.74400965818544 285.9476850825231
C 27.91717861221949 42.01418095608051 283.4867626633237
C 29.07360729678083 38.91873004240446 281.5784222189674
C 30.06401782011271 40.92799183084995 278.5023106686739
C 32.317414111627464 43.51286971151675 280.1796547433555
C 33.385643924272266 41.40043441153621 283.17992280321056
C 36.96929797821301 41.00404908578716 281.948981448176
C 37.502514957690266 44.773146678946496 281.74320514370464
C 35.777236324959205 45.543531642808986 285.0689596976278
C 37.58115898218462 43.102072084136886 287.38385933999615
C 41.247941863282016 43.702128544901306 286.55901570619466
C 44.571551008057625 43.04254197955929 288.2561885874056
C 44.87689463863849 46.60255234117295 289.6561530572294
C 41.237939846180424 46.513889048876415 290.78057377393304
C 41.66733609657851 43.175410307427136 292.55293406332027
C 44.84404103485351 44.24514937012654 294.3689942739088
C 43.15784886990897 47.365845209598874 295.75205209835826
C 40.12628857668146 45.40393767695323 296.94663943905095
C 42.24936220874351 42.801846479818536 298.7343844929126
C 44.69376191527277 45.31694546102957 300.2168346744059
C 41.768814185229594 47.28760493680754 301.6383435445377
C 40.111712290925155 44.13225928335811 302.9222428848624
C 43.223016115372474 43.00718884078481 304.80187964974306
C 43.70978105668533 46.38517843365391 306.47295412325633
C 40.09952048643225 46.17836299398989 307.63674487830156
C 40.76337246006007 42.60377525207349 308.75960578070533
C 44.00178098715405 43.53384950329682 310.5448704781634
C 42.39494215061329 46.53267833758467 312.23429571056295
C 39.91187446277374 44.31809527440329 314.0723377471953
C 42.66549564424092 42.12843474899468 315.51118700420886
C 44.6379677686326 45.15975546874031 316.6644873181067
C 41.54814076975052 46.855670449599074 318.1889535926484
C 41.50804483745156 44.385980273929725 321.10988178875374
C 45.290100032145475 44.54914220646247 321.3235271478587
C 45.06862871945205 48.32463560661629 321.27058421787643
C 42.029174847352316 49.35946839228297 323.33133619618184
C 39.17750969796093 46.91990885839316 324.0171315985691
C 40.21668342141296 44.923838529663726 327.09366019956923
C 39.380457782372325 43.54604157198313 330.4935119670644
C 42.387288326373884 45.30752788043029 332.0133007699168
C 42.095387539674995 48.644554413014795 330.22387802224307
C 38.286885861797124 48.89571625674743 330.37592321013125
C 37.623273085543005 46.96339154796911 333.6177812257304
C 34.8754379598603 45.28269667624946 331.59322477816744
C 33.36865804294156 41.81428012931218 331.87247545679867
C 35.95042731987792 39.24616133566663 330.84530134399864
C 35.43346356494344 36.329417085571826 328.470136132136
C 35.20007084476442 32.89128281158266 330.07523822117554
C 37.27875940098677 31.446877746292184 327.2074391525496
C 40.00594466575948 33.943865146084434 326.34188950319253
C 42.02123112767871 35.969443167430015 328.8709328148985
C 42.169183052114754 39.76364917292217 328.5231381613081
C 39.28032554106693 39.731633393483435 326.0011952990071
C 36.31186926409535 42.0806956542909 326.3142274922042
C 32.885573107580136 40.48016287592161 326.01525009060833
C 31.41071122149228 43.39659868843115 324.0736770842607
C 34.26950197254103 43.241743269885845 321.5765387179005
C 33.28718096026274 39.66513584081628 320.72008677719833
C 29.69110645958865 40.70139267118571 320.0485243611028
C 31.036590830950587 43.19576482170483 317.5105390092891
C 33.43193144771109 40.605214334696576 316.08409852412876
C 30.887560984466504 37.76968046659554 316.02808787470303
C 28.17468467941873 39.95952328090114 314.5334734706211
C 30.450104724496775 41.231129255658026 311.7678850108854
C 31.5545171381214 37.786634401305456 310.59292873481684
C 28.097107549141597 36.27146871678317 311.13006596180287
C 26.474086743729504 38.871336012141846 308.8722869494616
C 29.196599183856158 38.45046949810181 306.25926531774246
C 28.922076154562276 34.654172933904626 306.34295480811437
C 25.12222505058359 34.767789071386595 306.15961080633997
C 25.4519352975587 36.85752076569547 303.0051814357702
C 28.23134494103437 34.685233537561366 301.55516618963765
C 26.116490065693792 31.564870283964154 302.0565867007516
C 23.188274410654177 33.17723319012211 300.24714811162767
C 25.450044822422935 34.576559962935654 297.53041506721183
C 27.29790624340343 31.321533146767894 296.8484269736155
C 23.960751946544047 29.530186347577132 296.41926685473055
C 22.75269590943077 32.19635187284589 293.98485796488313
C 26.096421941950858 32.08728109885612 292.1456983686474
C 25.91988950007245 28.30627125170723 291.76773297811224
C 22.24874727563541 28.471714608232386 290.74419913331803
C 22.987721320942345 31.105093379360998 288.10141903032525
C 25.906827360109844 28.979181485635653 286.8941004849826
C 23.493937455158505 26.132606015104663 286.1128817090765
C 20.895285186880574 28.34784450039939 284.411388895559
C 22.846292184015127 28.500762063768136 281.13890157930336
C 24.474017383574676 25.0719341404574 281.2479386748303
C 25.23358920632545 22.22983966322747 283.5674223823076
C 28.654318877985084 20.706397864721776 282.9904905767387
C 27.874282076354884 16.978807067962226 283.23102608009873
C 28.99133307859902 14.418004314167337 280.66338372165063
C 27.544854291475744 10.915209042683939 280.38812634268396
C 29.45833536075172 8.029390251029186 278.8308444578605
C 27.713011904719608 4.71629527900553 278.10548702106945
C 29.87807957339351 1.9587921188014068 276.650457671534
C 29.337090978929364 -1.5994050781062654 275.5088663585834
C 32.463774749102065 -3.7630131066431294 275.5501618680284
C 33.227108107052935 -7.476664878620417 275.9222065855176
C 37.03085132415976 -7.588894246090513 275.70345956486295
C 37.50382602626546 -4.0944627075386455 277.1536212124754
C 38.73601442653325 -2.152898762257182 274.11702060289423
C 35.740527290946034 0.17686550977242727 274.155910636
C 35.9122363857343 0.34911110201876955 277.9648797415429
C 39.53713261643198 1.4784290747340003 277.7590293989092
C 38.532591186027226 3.957826406558925 275.0508801632532
C 35.75864631038037 5.399499656147167 277.21827169894055
C 37.99151767114845 5.602338987108895 280.30064730776434
C 40.56840779892543 7.5081522319670455 278.24646301832746
C 37.93541914553816 9.972634271673545 277.0189343236197
C 36.65563133574859 10.192655509705554 280.59669352661894
C 39.883392194308605 11.621816483413564 282.0256501161021
C 40.38806355182802 14.195160871875956 279.2550211208316
C 36.90630829067055 15.58905825355481 279.9109876796107
C 37.43686863098012 15.372864899231242 283.6770825229272
C 40.4967746757977 17.624484478169133 283.35839231320983
C 38.63655064270383 20.015699468734617 281.0447958594438
C 35.95828945590557 20.84361058667124 283.62630875274726
C 33.18664229605465 18.291983261339933 283.0619752111649
C 31.519089982086385 16.321565898116855 285.84196887710954
C 32.01192602897179 12.984469576735213 284.07027085003574
C 29.708754670018585 10.008196795020975 284.7343844389225
C 30.851604380883085 6.763857562388321 283.08591993862825
C 28.51531421360425 3.7544401363826436 283.052026404869
C 28.45310418227122 0.3192194735670167 281.4483513090571
C 25.509681776482626 -0.18936498253418804 279.09051138421216
C 24.514924749345624 -3.376633989662237 280.93855777172513
C 23.70718760096924 -1.3709084869270853 284.0950425235732
C 21.49595033944894 1.4480603963771561 282.74772591288564
C 17.807479678984286 1.8962220231922264 281.99046829132504
C 17.00741657419775 3.756245064129681 278.77965219167106
C 14.074726961235225 5.779431931670637 280.12155925561166
C 15.235718918541266 9.325013145727906 280.8100640962858
C 18.868449739006603 8.202322067717246 280.8126136605674
C 20.289453949401054 11.367343402686574 279.2396252898341
C 18.409458163124796 13.753221790373159 281.5388841359108
C 20.603622600151514 16.065538212410534 283.58859618854996
C 23.53094707940409 15.722091036116607 281.1707580624635
C 24.301799872259654 18.177338176140758 278.37966377053226
C 26.97150219067833 15.956449958001889 276.8229374381905
C 26.39420330797512 12.256175173515173 276.1429953359388
C 28.961943310881736 9.930323625321822 274.5720822156736
C 27.776135144045355 6.50655939339495 273.4484701363776
C 30.43867451959088 3.8961243949574387 272.71879166067964
C 29.858786547399575 0.44624999829562917 271.28119241028605
C 31.900223758753828 -2.254894623222811 269.5627648602166
C 30.74346786149103 -4.109998183455043 266.44870034829336
C 30.16620799575445 -7.878694988267378 266.4268423658933
C 28.88845583031053 -8.715454128863511 262.9565318188969
C 29.71793891927614 -12.418996834542112 262.64513071900444
C 28.229255756813675 -12.489885608391358 259.1516854542899
C 25.916788448206447 -9.47197920890619 259.55479703493717
C 26.228069026208622 -6.2592626096588315 261.5886822005266
C 25.52545170380184 -6.397116272342672 265.31627520401014
C 26.025204929231528 -4.137197249290394 268.31210332000273
C 27.808156435564737 -5.3535948701170195 271.41588378514956
C 25.18556080339346 -7.318083454939012 273.289578321949
C 25.053460369476614 -5.148268125934267 276.4105725869251
C 24.215405110743873 -2.1170178223412783 274.2536804444199
C 21.275611027581224 -3.5632052166202457 272.3027883317392
C 18.616711978431656 -2.970083710247198 275.0233894800137
C 19.623020731189307 0.6977650699589212 275.1003060674335
C 19.742822637470148 0.9061508847157702 271.31337025466934
C 16.265903600396374 -0.5969312304382757 270.97224603735873
C 14.778008047893024 1.9700179895703558 273.381244289652
C 17.004753370660296 4.903303300651073 272.4562707371869
C 14.030430865688531 7.19985993938922 271.79374782229996
C 13.252032404584169 7.10436584586966 275.5408822858099
C 16.62638233422114 8.536170499180724 276.5882107792745
C 15.9020682812157 12.206855607588667 275.8882606135985
C 18.31361096273196 12.55826206765933 272.95155730606587
C 16.349633919807758 15.1696383183646 270.9845750563333
C 18.09438474176011 18.524548690676397 271.1754602757206
C 20.910118468920498 17.116096542113553 273.29551139465747
C 24.60683003506436 17.131412542727467 272.3929234565936
C 25.91063494044752 13.625324874190916 271.65359505193874
C 28.80467392452363 11.873313988106128 269.9458180643226
C 29.70041654826275 8.2521774883845 269.31832753742583
C 32.81639735896861 6.109335407648002 269.518676070128
C 33.537561605824 2.4281786721631367 269.08813422988925
C 36.17991781715837 -0.2435806177979072 268.5717943532877
C 36.227997086256565 -2.394595759805701 265.45435475385517
C 38.53488115154656 -3.95281643186253 262.8831003082827
C 38.83390982693939 -3.0434907447350805 259.21473533018576
C 39.05917297557182 -6.64337584996967 257.9593889660827
C 35.28992813836545 -6.901431009486058 258.4673332912938
C 32.938032753609995 -5.630933539462591 255.7995674351222
C 31.374265074682697 -2.9093910492438666 257.96633435154786
C 34.17275605512543 -1.3121555944440326 259.9742287130021
C 32.622200118316194 -0.031104805595761557 263.21141957838097
C 29.135848142362903 -0.509331962409495 261.79549612914207
C 27.865069329381534 -0.11124493748646004 265.3595534360121
C 28.75872100323249 3.583870310442327 265.5911954796715
C 27.160282521490007 4.098463427518057 262.1712823715934
C 23.91419419506273 2.5526810424529396 263.4093558885549
C 23.96092276250418 4.552294011269714 266.6490501015264
C 24.699368544075472 7.856241629334079 264.9034715343307
C 21.961065095290113 7.315277898514024 262.30505564780543
C 19.410080184205835 6.66209922787775 265.04594134470375
C 20.670915994283305 9.668734750246895 267.00474003188407
C 20.178939376236748 11.785645094372821 263.8781382966796
C 16.67872190486172 10.381455682681068 263.41128899724043
C 15.920393526120042 11.33071697649016 267.0314605689727
C 16.923078012931423 14.968254278228713 266.57814313104416
C 20.035842491618144 14.796172795559384 268.7305375796986
C 22.665574702464713 17.485366025807355 268.14895515994704
C 25.665091425663284 15.425644344124951 267.0345740447088
C 28.676360426588854 17.548119620015306 267.93251526022624
C 31.15740228183659 15.825662987011825 265.60833712392014
C 31.853999467779325 12.669800025780392 263.6462686966172
C 32.235564416881566 9.39112078691182 265.4563001002663
C 35.4973500468056 7.93529016253187 266.7158893735892
C 36.24057140455597 4.641968800568562 264.9387085018266
C 39.186232353253054 2.7392507569404225 266.41957549530827
C 40.85552657793988 0.0735841723722023 264.28282452183925
C 42.62432334234737 -2.7505467321373938 266.06772447488635
C 44.05350895486727 -2.1551715071583133 269.52083941661533
C 42.914880693936375 1.1625841273076283 271.0500946685648
C 46.08623343851109 1.452520829982753 273.12911524305446
C 48.06008695753219 1.7095775007520342 269.86279170080655
C 45.7979078925754 4.587614786204935 268.70989337992813
C 45.68774592683536 6.673277404881592 271.90056878039087
C 46.62110525765811 9.950882109254215 270.1803692722659
C 43.37294117275824 9.811523463840027 268.1976103528412
C 41.20429944920369 8.984152838785844 271.22190108618804
C 42.64062464883117 11.944576145279557 273.1282398811258
C 42.43306694039262 14.12443652578895 270.0230134348568
C 38.78353634518386 13.189546941578682 269.51070303204693
C 37.97064521251518 13.848633972063363 273.1724079702225
C 39.575392495985085 17.273128165999513 272.7718620217213
C 37.276908444035215 18.117755128776068 269.8639310055568
C 34.18544011662467 16.830941470018008 271.6901459353334
C 35.24594820911485 18.903059615487876 274.7108242138259
C 34.13688714535678 22.103659620753955 272.9839736375916
C 30.486056802510404 21.03022688280769 272.91784879813594
C 29.871302230903066 23.306063988906665 275.9198381429811
C 31.71046787692763 26.66401172507916 275.8045464340148
C 34.763563583837374 27.099156941605433 278.0264610794555
C 33.203543700985776 30.0595665390953 279.84910686751437
C 30.17439608167491 28.021496681249012 280.9352953184575
C 32.288222123416034 25.144903969842392 282.2538982817698
C 34.755966202061344 27.540366732926607 283.8772428691026
C 31.962483368446026 29.47761372620134 285.5895150468037
C 30.60870166263255 26.179875229664155 286.955139017551
C 33.88565925891688 24.900054337493426 288.3843309808394
C 34.55904695667851 28.353700028611865 289.86816648138864
C 31.114817918825935 28.23695810009068 291.4693683308555
C 31.625199332471208 24.616691490393094 292.5665468983002
C 35.0701515574136 25.406563187303394 293.995169829295
C 33.811534825111615 28.361817209239014 296.04336591987925
C 30.98817370068874 26.41091744518868 297.6855728140317
C 33.48932705383826 23.740689510232713 298.7207716753861
C 35.80077943371678 26.331730100902448 300.30021762732446
C 32.77068719917684 27.742572525867534 302.1163058433863
C 31.405182196783752 24.420026300097632 303.40527348851117
C 34.85013206553886 23.41519754746332 304.6635413841545
C 35.17019326180686 26.78720652613258 306.3992652213789
C 31.793171077581373 26.365243788593574 308.1161549173066
C 32.62554718030824 22.81180016304733 309.19763219573065
C 35.94904037090247 23.73007561511447 310.8015518757626
C 35.48918512719436 27.247940472228937 312.1662936653555
C 31.735006516500803 27.012638043342367 312.71861886808966
C 31.862692176065394 25.01794435868614 315.95742904383127
C 34.3908518268266 27.41346087683428 317.5039278420471
C 32.119121915723106 30.325838003768858 316.59213869888663
C 29.217776995582305 28.55513937308963 318.29798997068417
C 31.395239636173514 28.256928623882647 321.4039608407755
C 32.06931679468328 31.998529758250555 321.312725690699
C 28.327130006092634 32.59626879940925 320.9663328593411
C 27.772148247088055 30.521507770483755 324.1047433383522
C 30.34356607127356 32.725117162174975 325.8513463469675
C 28.90625855155115 36.17012923488855 325.1055926309442
C 25.169210186403323 35.73241305801772 325.67803523499384
C 25.17307818601918 33.31955839014318 328.6093917664549
C 27.785495622306872 31.47120809638391 330.63557483980276
C 29.842806406617598 28.471227090044763 329.5396402751587
C 29.38831753489929 24.83405430095296 330.5171293649266
C 31.98056996744598 22.382674898500344 331.7728709899651
C 31.245203039359637 20.392397039154858 328.6097440335402
C 31.666579057450342 23.288547832336416 326.1746378966456
C 35.07056162748453 24.116259125596624 327.6898632113035
C 36.12690331119914 20.530064058191964 326.8859830412352
C 34.95870404715683 20.24253475433385 323.27311024592683
C 36.63515163403578 23.619702793524525 322.7181683638496
C 40.03606475380601 21.908023982721588 322.8559717854949
C 39.007716757311606 19.790450835397305 319.8586876737493
C 36.966365376765246 22.440517094710195 318.05326711214536
C 39.99590470974252 24.73870214264667 318.04536325694846
C 41.96759880855114 21.956469294507716 316.34571720263904
C 39.2871223816202 21.892039646153467 313.65820976351085
C 40.241262848370624 25.512560100237007 312.98887135801
C 43.77836134131434 24.39260653500114 312.1077523730212
C 42.89467891138725 21.632301131938554 309.65376006565464
C 40.85244360226384 24.14673464301719 307.6761365400383
C 44.191428505184604 25.758501089130714 306.8208833205979
C 45.573868628755314 22.322668254978407 305.880101669844
C 42.86231533186394 21.114639519435997 303.5068308339599
C 42.536983730829725 24.430307252308747 301.6590125221118
C 45.926564458975 23.93733432734264 299.9386583432624
C 44.67376211391054 20.41224335114658 299.21329465139746
C 41.47951951215855 21.83074530305511 297.69690494842587
C 43.43467395259757 24.245482804432292 295.5025985246185
C 45.5228229277631 21.36770109706792 294.14959193127487
C 42.57692968722379 19.149712950960012 293.2156981838816
C 40.46409422270808 21.76998424175627 291.41514224239637
C 42.86191259285642 24.395930573707254 290.0142342257962
C 44.21479607808774 22.59052834732118 286.949547343861
C 46.4452961421196 25.59176404350125 286.1544562922136
C 48.11778874793781 25.496219094931874 289.57768334898566
C 49.14546782134549 21.8723607144938 289.025219094129
C 50.93778975075623 22.835799282974897 285.811043563156
C 52.64312633551805 25.831410571999644 287.43417301244773
C 53.78338752088195 23.396820797005287 290.134007087051
C 55.20615825448207 20.9532823094514 287.5821561125132
C 56.88108979434139 23.93547262475007 285.8846357189461
C 59.248183371019145 23.954155863490918 288.8718415677598
C 59.41561736555813 20.14260211506813 288.61703314406617
439
Mode 10 - Frame 21
C 49.196558882193074 36.05315141722205 337.4234572483233
C 50.60663420657171 33.85871235320134 338.76334903418564
C 50.42716697585415 30.621845711111703 336.81331715048015
C 50.22303067733626 33.00070092917408 333.8481065942226
C 47.48940893319578 33.93663154782442 331.39202369802615
C 49.00163470327573 32.1939957905257 328.37256499276043
C 47.88588566101558 31.38074462688196 324.8424684368879
C 46.960581847254694 27.709779762008413 324.3671719739294
C 46.66019554552182 27.20167795701012 328.1492825480148
C 43.31527001316942 25.413850918855125 328.1372219203211
C 41.53899352498075 23.34855049614519 330.7986292489786
C 43.104572337345225 20.094433200816507 329.4707548775815
C 40.90838545006014 17.44657514230281 331.07055138681613
C 43.07995990244924 14.335049440842125 330.64698063225893
C 41.610379023410694 10.872693663313873 330.0479394380007
C 45.0728468183612 9.367899112202199 329.45735647535145
C 48.657172767448095 10.434527209187252 330.1924162573142
C 51.48614191272113 10.847102614528062 329.23743626990444
C 51.06963674654042 9.154890669432067 325.85551850442874
C 48.37624136198683 11.722932520942116 325.0957332366339
C 50.64913959258433 14.541565513800283 326.27398802464853
C 53.58255222887092 13.142106544393362 324.30941564747434
C 51.76946616548062 11.803467340839445 321.2363927688968
C 49.30766056336991 14.693764579856607 320.8865130299494
C 52.19725945614461 17.138494694748587 321.25016402039137
C 54.284284818037776 15.658159530000646 318.42797424984997
C 51.14031680425185 15.034959063758647 316.372416300639
C 49.81702793809016 18.58596936519387 316.7402145686966
C 53.23554721493929 20.147035673427457 316.1472181851677
C 53.79604676868554 18.055003402182937 313.0129424541027
C 50.32647752185857 18.94650628013913 311.7241131933225
C 51.05055292745065 22.634706714187505 312.2709058231872
C 54.443999037303605 22.684827094133027 310.5569281618349
C 52.99061590745945 20.729435277162807 307.6318011695553
C 50.383709343752514 23.47252571601024 307.17788296682454
C 52.93807470898189 26.292016184329274 307.2707689695979
C 55.00056922072047 24.59333606229671 304.56581968781404
C 52.09414593777214 23.57248655458989 302.33923222458276
C 50.571739522849334 27.059653896363255 302.50121198636634
C 54.057243409211544 28.46047301823368 301.9318244330653
C 54.144159328844296 26.188078715151757 298.87703561591724
C 50.93058961721802 27.73978328411701 297.5333081343305
C 52.35034805917533 31.222779815069806 298.1175271283692
C 55.438185503098744 30.190914005372917 296.13707460246025
C 53.928372446497896 28.899789559561306 292.88355998733067
C 51.719259376632884 31.99387022228191 292.6144182485793
C 54.42856407979629 34.62058799263044 293.1133360943065
C 56.80305030896643 32.44426741271183 291.07502871225904
C 54.737606692577245 32.30403362076253 287.87204230451675
C 53.4832416142238 35.365254223799276 286.00423349112964
C 50.60856362417619 33.52525332060946 284.3051803131234
C 48.9107579127962 33.41531819168935 287.7389793940295
C 49.879738561780194 36.64779849406593 289.5343106076142
C 48.15655932213088 38.51639135993634 286.6842824304883
C 44.90339189325141 36.56791919622034 287.16275077173947
C 42.347809401967936 38.12514843122609 289.5561421361671
C 41.25729964759589 34.620614995487394 290.6119122902625
C 44.68823740049229 33.88075783383015 292.1084929275005
C 44.644921272151684 37.10637228996672 294.09891370992443
C 41.84138504397907 35.21930164096328 295.8779307461268
C 43.72362763950788 31.95122859892909 296.46111508558056
C 46.93033588836875 33.73169736374277 297.44762969700486
C 44.94267773376162 35.849644475568546 299.89565898796525
C 43.42558807301171 32.71819887799495 301.4474091385385
C 46.75323528913975 30.88567687419753 301.5487077899194
C 48.54875634172247 33.77084327367994 303.268357382132
C 45.620483828230235 33.94436441717301 305.6903733962125
C 45.902389399674945 30.201330336296397 306.3280091172318
C 49.65813076362896 30.680632845359536 306.7358709852151
C 49.353471853560286 33.61365329351908 309.15222966603926
C 47.32472159203617 31.3805209953152 311.4574682513932
C 49.32101465156445 28.17918872267478 311.01958696104015
C 52.50071024735409 30.13536115313849 311.78890274122824
C 50.99110677400861 31.538464031676323 314.9881036297354
C 49.87435296354848 28.029071614011613 315.9114976850144
C 53.32519797980542 26.457167896082574 315.6383762410293
C 54.95275174493777 29.483325352283842 317.2647538659567
C 52.627308871877226 29.560511607817407 320.2767015953905
C 52.69856037336388 25.758402112646674 320.53570878325013
C 56.50072517823565 25.53063731738606 320.68408457098144
C 56.69048193599502 28.695390396021125 322.80071428104196
C 54.47902238470652 27.241507829041495 325.5645085326908
C 54.36646042569987 23.426746481157796 325.32492731476697
C 58.16279587278164 23.20612520709848 324.93357597957635
C 59.66549257520992 26.28666931374975 326.60699346245195
C 56.756105805603674 27.004576191146523 328.9892692473319
C 57.37233094200257 30.73964199199437 328.598739134769
C 54.86581990347506 33.28340706395822 329.8889935652401
C 52.7012564213137 35.66891548789046 327.8798340499683
C 52.19537094803535 39.28109338740389 328.91342559606403
C 49.034769721543014 41.16431937964317 327.91992510921085
C 50.305091028056175 42.43906137433434 324.5647537240703
C 52.16450986619073 39.27137164079432 323.54648948034287
C 48.97862067587327 37.30586293143702 324.24266232331644
C 46.62354258448309 39.555754707262786 322.26195932924946
C 49.065388279223086 39.699167379487974 319.3460821523132
C 48.951215689779154 35.90379613609111 319.06490082000124
C 45.16442142619898 35.83995954684704 319.4123006688358
C 44.770884364135576 38.81236958583841 317.07716438961666
C 46.860069268254094 37.056033134766196 314.4506523884471
C 44.51734913847054 34.068545186574745 314.54533728400116
C 41.559117784991706 36.458108828731845 314.58462382909966
C 43.02276346577608 38.275265221006705 311.57234453206013
C 43.571397877914066 34.9841005976601 309.73523310176824
C 39.87070363480075 34.11930974230294 309.9035343518602
C 38.77135356529809 37.696205465849616 309.2338299911852
C 40.74395557061428 37.89075230418641 305.99086032079134
C 39.444802550024384 34.42703097702041 305.080832658745
C 35.84170501227208 35.62151109253241 305.3769359484397
C 36.833864572010334 38.91584336246149 303.76561733020634
C 38.27422412970694 36.99060150601259 300.82066010584
C 35.10424005407647 34.924099169654056 300.3613262676171
C 33.22750251253649 38.2323505586312 300.3929028296741
C 35.31121075708457 39.71198583213003 297.57639441460003
C 34.891190164790125 36.48446188907417 295.61021923075026
C 31.11070843387858 36.810034790480294 295.86158779320914
C 31.396747810203138 40.320758047172816 294.40533732413047
C 33.49745437466568 39.051713927390736 291.50124312866427
C 30.876331281212483 36.40418688146045 290.7462915015681
C 28.09571849473527 38.98679884348429 291.02058588844835
C 29.86842078572546 41.06435830324628 288.3672959410193
C 30.347511340388134 37.974238965481824 286.185913202973
C 26.62151590824519 37.21603356554177 286.44958695644203
C 25.25815620137102 40.73684306706709 285.9482432750305
C 27.91277780313168 42.00742392581231 283.48673936031025
C 29.07160502960223 38.912125109907215 281.57954371492104
C 30.06087763470423 40.920921674817656 278.50283209918103
C 32.31195638497469 43.508438572867824 280.17952265869775
C 33.38168154395328 41.39772787123861 283.1805043364358
C 36.9655961874313 41.0041520907697 281.94986329589904
C 37.49588890699897 44.77365200804498 281.7435198422502
C 35.76989561828209 45.543485656937406 285.06885755504896
C 37.57547983458444 43.10433742759393 287.3847291984699
C 41.24175047040306 43.70655951235582 286.55999910302876
C 44.56581216623119 43.048780878775695 288.2568944022487
C 44.86902945597194 46.60918499963486 289.6564626416398
C 41.23027547318047 46.51829650130082 290.78161196491106
C 41.662263451866956 43.18026168175365 292.55400762948165
C 44.83884123389601 44.2516442772149 294.36928826810407
C 43.15145197548905 47.37152476877129 295.7528426974313
C 40.121505822620605 45.40815353300549 296.9484695611607
C 42.24645220823788 42.8070352363511 298.7355022847159
C 44.69030204731277 45.323125790792936 300.2171129982487
C 41.76535944941994 47.29237723544012 301.64014461410517
C 40.1100148890603 44.13650671648684 302.92452499846917
C 43.22242858483954 43.01211665577604 304.8028496878103
C 43.70975955963277 46.38971248493051 306.47412784448335
C 40.10035707440911 46.1824242390531 307.6396653931992
C 40.76507818324036 42.60787697489098 308.76172715446876
C 44.00401774911661 43.53776214556288 310.54623235760033
C 42.398569333085604 46.536377802921805 312.23668119635744
C 39.91549499928362 44.32203204782129 314.07492373131913
C 42.669078986274585 42.13181574105709 315.51307088926177
C 44.642284764721985 45.16228428157957 316.6668916169782
C 41.55296567939319 46.85868184215086 318.19179641479116
C 41.511976658693676 44.38843297390109 321.1123248189117
C 45.29413545817603 44.55033439472776 321.3263280993188
C 45.07389428055177 48.325778054136876 321.2739798856114
C 42.034690401220146 49.36118353461379 323.3348056972613
C 39.18197808910828 46.92245273186779 324.0197955273643
C 40.22028520043678 44.92549182863636 327.0960814728886
C 39.383251923149416 43.54742025034742 330.4956241296913
C 42.39055675639086 45.30757971061918 332.0160794943519
C 42.10004030759624 48.64500159020358 330.22720435182697
C 38.291587557710834 48.89745573576753 330.3788612346237
C 37.6269327610174 46.964804588890566 333.6203125675319
C 34.878721081711674 45.28541608746309 331.59511237207425
C 33.37068636262588 41.81744956902539 331.8736021799339
C 35.95174568760971 39.24863181326999 330.84641097178655
C 35.434196378585696 36.332305415985765 328.4709349821051
C 35.19968505880543 32.893863401827495 330.0756543529195
C 37.278244850302265 31.449124008596343 327.2081695692495
C 40.00603741821239 33.94552105840288 326.34276232325396
C 42.02154837747298 35.9701739783328 328.8722026294258
C 42.170870178186654 39.76440021057132 328.5250172506978
C 39.28232121389795 39.73375747842048 326.0026872566031
C 36.314605620927985 42.083709521577234 326.3157226107045
C 32.88788764426014 40.484204472297954 326.01615831511515
C 31.414119359137203 43.40137037356394 324.0748236042834
C 34.272987750450426 43.24603822345995 321.5778680232997
C 33.28975155018771 39.669862081037834 320.72088078122965
C 29.693964291044004 40.7071259831321 320.04926314404463
C 31.039987147993422 43.201240117011174 317.5113774159414
C 33.43447753912855 40.61043920923373 316.08479549606653
C 30.889776145361484 37.775343850398514 316.028783801022
C 28.176911985360906 39.965367602295395 314.53430544232845
C 30.451784159934576 41.2359530347841 311.76836464798197
C 31.55594251017116 37.791311407452255 310.59390359232515
C 28.09859089097569 36.27632582605983 311.1315452203645
C 26.475077115417427 38.874903680622616 308.8733951639151
C 29.197050756891105 38.453166603721925 306.260273222804
C 28.923360042962006 34.656939106700634 306.34501226582705
C 25.123621743880758 34.769437514274976 306.16222360090467
C 25.452223501133183 36.857670082792154 303.00696658861193
C 28.232066107532194 34.685747394913896 301.55734258741626
C 26.118403706981457 31.564955733205423 302.0598844267975
C 23.189479579450357 33.17539056204767 300.2503045891223
C 25.450343779747847 34.57435667731836 297.53281227209516
C 27.299369819938725 31.319916341020903 296.8515126458345
C 23.96278948619784 29.527160894588587 296.42331866031526
C 22.753647906868835 32.191771704491565 293.98808413965423
C 26.097347039762763 32.08318490888122 292.1487125024441
C 25.922136916427064 28.302075909413983 291.7718305502409
C 22.25088254214523 28.46569727315205 290.74863703152954
C 22.98877399889305 31.09842593580271 288.1049948499855
C 25.908675933337356 28.973209991133242 286.8980377700038
C 23.49658232189143 26.125694348514337 286.1177793681961
C 20.897178712045385 28.339581653000614 284.4157472401942
C 22.848382767139682 28.493080235118228 281.1432120765623
C 24.47725921094519 25.065054691009507 281.2530382981022
C 25.237181734796486 22.223049122959615 283.5727658695689
C 28.65798304961199 20.699662131730772 282.99593894517375
C 27.877746263653588 16.9718169563701 283.2357415434125
C 28.994213160748732 14.411229940229628 280.667447001869
C 27.547000065386296 10.908749326526326 280.39078975542765
C 29.459448328490563 8.022948326898371 278.83220378248177
C 27.713013073590112 4.7105313283015695 278.10514209757713
C 29.877007346159317 1.9529787650756174 276.6485388988014
C 29.334841645896343 -1.6045504954036265 275.50492581808214
C 32.46080706859461 -3.7692000782229553 275.5450721166045
C 33.2228967463249 -7.48340677209605 275.91486295885943
C 37.02651656561092 -7.596640514833272 275.69643533351524
C 37.50047063854488 -4.103050274707821 277.1487729329454
C 38.73336483528155 -2.1602527325363137 274.11329157788606
C 35.73881172477102 0.170568434616748 274.1532508540258
C 35.910492256893946 0.34087443102566617 277.96231511165337
C 39.53557466989655 1.4692417693278814 277.75736313244124
C 38.53206011907763 3.9502490809076583 275.0504756551402
C 35.75870976866974 5.391988433824088 277.2184947467719
C 37.9914703134628 5.592946465464047 280.3010054203965
C 40.56893876621213 7.49893774462335 278.24817763301394
C 37.936933081611336 9.964841710225196 277.0216770683524
C 36.65726429128899 10.184177735223624 280.5994126285846
C 39.88500166963399 11.612470844968481 282.02895406861404
C 40.39072079942188 14.186536345674162 279.25953972627457
C 36.90938230994862 15.581209135495941 279.9156993725544
C 37.44019403847842 15.364800425644178 283.68170534263527
C 40.5003854146763 17.616971765589128 283.3635364771798
C 38.639648457430525 20.00801149416184 281.0500778312624
C 35.96136162588336 20.836797554413728 283.6313465268224
C 33.190043666222984 18.284814078434863 283.067078421774
C 31.52253530851878 16.31386480885001 285.84648235297806
C 32.01447158834779 12.976366288222522 284.0738321205444
C 29.710890662549403 9.999772166892898 284.73648408013867
C 30.85205646419057 6.7553996265442935 283.08669756153586
C 28.515050508400915 3.7461375863122672 283.0510471427296
C 28.451543443914307 0.3115825559138345 281.44553842383203
C 25.508079564014242 -0.19519376132866972 279.0873214741561
C 24.51246272403977 -3.3832746648195555 280.9336050777638
C 23.705438682173728 -1.3790488957986764 284.09121746538585
C 21.494963608790375 1.441291528897655 282.745440735671
C 17.806544921777526 1.8907454362458898 281.9884523758302
C 17.006966548374752 3.7527344488965517 278.77863618723234
C 14.07499470920958 5.776136035057895 280.1217123518589
C 15.237164102496667 9.320988832120198 280.81203409903776
C 18.86957393702832 8.197248045575337 280.81385213877627
C 20.29146223006489 11.362664217214268 279.2424358774103
C 18.412252341286244 13.747843366038767 281.54299654953917
C 20.607022036468315 16.058718074052113 283.5936621846449
C 23.534083818455077 15.715816104371344 281.17544721033937
C 24.305314899593352 18.171676622783636 278.3850309586102
C 26.974693433591455 15.951192121885075 276.8274478272139
C 26.396383350235187 12.251479470382371 276.1461368130804
C 28.96350871237626 9.92574068347103 274.57415218295756
C 27.776541155112735 6.502883269786114 273.44890903882504
C 30.438249820257898 3.8920128189363794 272.71788753554273
C 29.85719462191306 0.4430344239400949 271.2783639235102
C 31.89769290635628 -2.257928026367517 269.55842161216475
C 30.740273678136035 -4.110979859810671 266.44317254045114
C 30.16141732981729 -7.87945052431779 266.4186774943885
C 28.883100385297716 -8.713338637349356 262.9476491578891
C 29.71056901168184 -12.417032814312236 262.63316492620135
C 28.22181877259096 -12.484474175870607 259.1395777574895
C 25.910778363138768 -9.465889668296345 259.5451549305201
C 26.223657457366677 -6.255164604313382 261.5816798287664
C 25.521274079282563 -6.395458535583731 265.3093310565765
C 26.022083115220084 -4.1376093581905335 268.3066150781278
C 27.804735303765572 -5.356304285447545 271.4096866898418
C 25.18159026181181 -7.320939027671998 273.28236937987896
C 25.05026545051465 -5.152712798218297 276.4046394928872
C 24.213088435419746 -2.1200633218495066 274.24942709343463
C 21.272823642941862 -3.564403591567584 272.29776008995003
C 18.614130876641926 -2.972055638805182 275.01871481866544
C 19.621549984619975 0.6954837374000055 275.0975869256097
C 19.741332440975622 0.9058711429885291 271.3107556005709
C 16.263930425927946 -0.5960408090238842 270.96883370315396
C 14.776830612422453 1.9700197558848014 273.37930456591874
C 17.004434598828134 4.9031367094256835 272.45580639228825
C 14.030767726853455 7.200926227657472 271.7946067313561
C 13.252526513600516 7.103714468319065 275.5417543972292
C 16.627401728600827 8.53392897388107 276.58970425680786
C 15.904136880338347 12.205172277337978 275.891624508095
C 18.315634659823704 12.557305944182048 272.9549503314521
C 16.352347169250578 15.170290104782499 270.98934442113745
C 18.098153565724203 18.52460256412911 271.18178933827846
C 20.913468406874735 17.11394594077579 273.3008636216383
C 24.610151653004465 17.128605669759175 272.3980215856557
C 25.912955548216754 13.622607578917433 271.65718815436406
C 28.806605618077175 11.870791994920067 269.9486475795528
C 29.70134111649284 8.249838463851718 269.31953792249914
C 32.81673093026044 6.106030033778597 269.518938821335
C 33.53663489264262 2.4248579091462656 269.0864782563005
C 36.17804422404082 -0.2475650448858995 268.5687304121551
C 36.22534579244162 -2.396912520605149 265.4499712393169
C 38.5316293617991 -3.9544675611521365 262.877709956172
C 38.83105359458447 -3.0429498159098585 259.20989825535696
C 39.0547716130471 -6.642038156376583 257.9520632465463
C 35.28540455091281 -6.8989205060993495 258.45970754888776
C 32.93410855068283 -5.62562499854806 255.79265198053812
C 31.371443722494917 -2.9050110983854345 257.9612615354996
C 34.17057202291223 -1.3103053476013593 259.97032375044023
C 32.62045242854229 -0.03082053956840092 263.2083188397974
C 29.133967708192714 -0.5069099195102789 261.7920101648455
C 27.86330879803443 -0.11058168848926468 265.35636765483184
C 28.758104496974987 3.584053947754762 265.5900364472784
C 27.15981933363871 4.101061751623647 262.17032824166745
C 23.913231407482556 2.5554971041262844 263.40752530768395
C 23.960522437018664 4.553206548147383 266.64836772246866
C 24.69989565710623 7.857738135895075 264.9044015013938
C 21.961366043116044 7.318938046552243 262.3056502244398
C 19.41018624260128 6.664956349284161 265.04623014202
C 20.671889600856364 9.670181488645774 267.0065800307485
C 20.1804062059349 11.788850368352554 263.8809992540747
C 16.67977464014482 10.385918770312694 263.4135756384128
C 15.921806761267176 11.333536566363888 267.03425498335343
C 16.92554030945275 14.971028437855528 266.5827719015887
C 20.038379848839696 14.796877059872603 268.73491052295606
C 22.668969435924556 17.48550014969519 268.1544491437034
C 25.667849595534193 15.42531486747102 267.0389505683005
C 28.67983230674221 17.546167655534994 267.9374751248642
C 31.160485529681598 15.824255300633181 265.61269038533254
C 31.856355866836466 12.669289463860396 263.64933882833446
C 32.23699443101868 9.38985623530356 265.4580969042375
C 35.49836627103017 7.932471273606384 266.71715492281106
C 36.24052932271026 4.639903842338382 264.93828713905543
C 39.18546968319558 2.735347958773019 266.41825740398684
C 40.85381094175802 0.07020503811311415 264.2800580992343
C 42.621409525726314 -2.7556078723311814 266.0634754470532
C 44.050711548170376 -2.162454071552738 269.5169944162756
C 42.91329801227196 1.1549830133538639 271.04814025421456
C 46.08468539123901 1.442557049837825 273.12745740523434
C 48.058720898898954 1.7005029540958585 269.8612984667811
C 45.79770247802171 4.580114867980851 268.70998109685746
C 45.6881137224275 6.664173393170913 271.9018028520184
C 46.622784745444605 9.942328398084394 270.18344927905065
C 43.374702735262886 9.805094619271841 268.20032128835027
C 41.20560526189305 8.977196676865026 271.22414964013086
C 42.64284606064181 11.936385134778234 273.13189629640885
C 42.436215448051264 14.117508217810261 270.0275312856487
C 38.786338199687634 13.184004071425889 269.5145031074929
C 37.97345775620919 13.842019606854388 273.1764736312983
C 39.57916208130141 17.26616958156954 272.7770523042429
C 37.281121429839644 18.11233088505278 269.86922624676026
C 34.18911619212455 16.8256337077688 271.6948731666899
C 35.249870542858176 18.89668341322197 274.71610896963284
C 34.1415889672974 22.09783325764492 272.98966580652706
C 30.49057891137584 21.024947143947777 272.92323415323636
C 29.87525932444256 23.299982772461135 275.9251242664288
C 31.71404849261455 26.657925377085085 275.8092148030517
C 34.76715359655234 27.09298666629305 278.0313174388575
C 33.20595353583684 30.05392740766252 279.852946593736
C 30.176987793397142 28.015065207019504 280.9393499187667
C 32.29138586779299 25.138512485435417 282.25850301167304
C 34.75822114943689 27.53519891078794 283.8808995777615
C 31.964199981218474 29.472961082570762 285.59260936653016
C 30.61122519249377 26.174855519988764 286.95908008591056
C 33.88847318176347 24.89603406831863 288.3880945262622
C 34.56111346204142 28.351903237294604 289.8706374642272
C 31.117058306942116 28.234597534814846 291.47225187426466
C 31.62875358099408 24.614402933389822 292.5702334582092
C 35.07389748606272 25.406913040528448 293.99783751179206
C 33.81423834489498 28.362682931084535 296.0452673718516
C 30.99152906160018 26.41100752497701 297.68808369283227
C 33.49367932651492 23.741542693891105 298.7232038940112
C 35.804194268811116 26.334354608459993 300.30171177723685
C 32.77370023629382 27.744592449017624 302.11771046936286
C 31.40863657735968 24.421501664456045 303.4068713086519
C 34.85377789489767 23.417769766010398 304.664870951341
C 35.173157801450316 26.790565110025693 306.3999785605648
C 31.795838882642016 26.368507845647592 308.11666105529235
C 32.62815372772101 22.81521703346076 309.198577937409
C 35.951793527937625 23.73450138563291 310.8018024328873
C 35.49155975530869 27.252352973679454 312.16651886996965
C 31.737265422168594 27.017609963498465 312.71828689005923
C 31.86384017788401 25.023339096444243 315.9567838714023
C 34.39231006044464 27.418513587284657 317.50362620077027
C 32.121097595503755 30.33102592807648 316.591857760688
C 29.218835139973777 28.56094600031445 318.29671257482295
C 31.395459535906966 28.26202726029746 321.4029751411946
C 32.07032975403255 32.00339286091247 321.31250238656816
C 28.328320996458864 32.60189176347548 320.96558005752127
C 27.772162802798277 30.52705601256619 324.1034417267792
C 30.34381802219119 32.72974338295393 325.8508894258508
C 28.907560348685216 36.175247568389544 325.10545444775005
C 25.17031086383976 35.738442928069006 325.67715502531576
C 25.173085862750327 33.32520978781213 328.6081538211008
C 27.78466061597415 31.475745060109638 330.63445305506303
C 29.841216431017767 28.475274991315057 329.5383285442775
C 29.38540314807121 24.837987051373428 330.51478561536936
C 31.976698511112538 22.385392171455415 331.7703055007977
C 31.241000999604886 20.396167070544458 328.6064787807967
C 31.664083090222796 23.292725411311206 326.172344077515
C 35.06806394888757 24.119033761164545 327.68847518404124
C 36.12257365702227 20.53311409738899 326.8833303684032
C 34.95582761021695 20.246121936410425 323.2702736918047
C 36.63369374022414 23.62281554725127 322.71700666907674
C 40.034009216789684 21.91008823237571 322.85479078958366
C 39.00641253586659 19.793538850496557 319.85688966936397
C 36.96708854975495 22.444986212110848 318.0522132984919
C 39.99687720833762 24.742403945295038 318.04539892350317
C 41.96903219945054 21.960639162208775 316.34549306510405
C 39.28958903450215 21.896461885042516 313.6577394318831
C 40.24384147851807 25.516935254684192 312.98895691270695
C 43.78094964203789 24.396986248667528 312.10762987417814
C 42.89778932023509 21.637239972289645 309.6531473947595
C 40.855727278117264 24.151617862386498 307.6761499462864
C 44.1945143277814 25.763852304258563 306.8207736789044
C 45.57758677792074 22.32862499619218 305.87962072498857
C 42.86647008267024 21.11990614093723 303.50661785336973
C 42.540811366817984 24.43554125000546 301.65901375160126
C 45.930449114029955 23.943749209071058 299.93842842659177
C 44.679138957879445 20.417962002034535 299.2134217673552
C 41.48447979427448 21.835138641728296 297.69719017215647
C 43.43876572927826 24.250439482382824 295.50255910556893
C 45.52840211371157 21.373562877426338 294.1496500503261
C 42.58409032294255 19.153121258413535 293.2168467755805
C 40.46901274757884 21.771455476596607 291.4163344341899
C 42.865045945829465 24.398967506667223 290.01425722336637
C 44.21821254741748 22.592838489194055 286.94930652866185
C 46.44591433180159 25.597239262399317 286.1540101661227
C 48.119829900953796 25.503604517225675 289.57686677468536
C 49.149833915346214 21.88025096912802 289.02435693674676
C 50.94051830053419 22.84500900979031 285.8095750583541
C 52.64441515095858 25.841662173230063 287.4326190322141
C 53.78715661771544 23.407505418256843 290.13174951705435
C 55.21088669539996 20.965386841119564 287.5791276908807
C 56.88316050574043 23.948774068272286 285.88116346034025
C 59.25134331047374 23.968898987730512 288.86760403674566
C 59.42156911017018 20.15768361114338 288.611832568348
439
Mode 10 - Frame 22
C 49.195898891278794 36.050918929319124 337.4246664028876
C 50.60506361406442 33.85581996824669 338.764461838717
C 50.42470668799422 30.619279336336607 336.8140171780185
C 50.22193522645836 32.9986763639952 333.84907121210085
C 47.48883349369014 33.935563558052245 331.39280171854887
C 49.00084107093958 32.19289874524367 328.3732306450332
C 47.8851949024096 31.380321635930166 324.8429011653236
C 46.9593287772403 27.709632590034285 324.3673169401295
C 46.658422096421035 27.20102340807744 328.1493868654902
C 43.31372847842505 25.413295679068316 328.1377347868147
C 41.53748505632089 23.347113184499364 330.7982009850023
C 43.102541895236335 20.092716315290676 329.46955541763856
C 40.905158209482295 17.445230361449024 331.0686113916302
C 43.071914481971056 14.330801395410932 330.6392560746079
C 41.59796534608513 10.870760170477485 330.0334033692617
C 45.058763538742134 9.36254734352103 329.4418340176472
C 48.64415553511637 10.42417690346539 330.1809640279474
C 51.47412871875184 10.836641499486086 329.2286356829983
C 51.05856021165051 9.148670173018699 325.84448226781785
C 48.36761467617584 11.72000449593435 325.0860321776787
C 50.642244939445334 14.53587858350774 326.268594617258
C 53.57581354073219 13.136947064637173 324.3047273164518
C 51.7644145256091 11.801340695750495 321.22918977104416
C 49.30417168285176 14.693113989778945 320.8803209767835
C 52.19452918161284 17.136552108610207 321.2472465754187
C 54.2825611510919 15.657389883402626 318.42518523855773
C 51.13969145204624 15.03564272594455 316.3674080840384
C 49.816892108309986 18.586744902586382 316.7368881140555
C 53.235800734888954 20.147494325823295 316.1455828773611
C 53.797511376650604 18.0568316458365 313.0107004161246
C 50.32814462500971 18.948677421852814 311.72137623425743
C 51.05204066798693 22.636749909566518 312.2695761551787
C 54.44573567706424 22.687515621999093 310.55610223899754
C 52.99297486819994 20.732882835600385 307.6302839098285
C 50.38566125490013 23.475794598885855 307.1769635740673
C 52.939814807105016 26.29544458930061 307.2704384955702
C 55.002560430140825 24.597647428275216 304.5651716162915
C 52.0963006110454 23.57666769178543 302.33846590028736
C 50.57337289781909 27.063522766017584 302.50090175918143
C 54.05862559967375 28.464927750012855 301.9314507916361
C 54.1458575920775 26.192926746248396 298.87639741278497
C 50.9318962257409 27.74402368471014 297.5329565991154
C 52.351049499309184 31.227248568140617 298.1172770060726
C 55.43883381185744 30.196165828707034 296.1364381810989
C 53.92902929898199 28.90494429103922 292.88294574912777
C 51.71922552851256 31.99848021377406 292.6141174480322
C 54.427950028628096 34.625870618667804 293.1129858369238
C 56.80273269276798 32.450312325010984 291.07439019361436
C 54.73704029111122 32.30974793282518 287.87154151368065
C 53.481881590401656 35.370704404682 286.0038785445556
C 50.60749253014358 33.5299722249479 284.3049600428098
C 48.909969911406705 33.41935452771677 287.7388870478829
C 49.878446951760885 36.65217669639972 289.5342333986585
C 48.15461968960632 38.52047674211808 286.68438674259244
C 44.90199303530791 36.57111465760053 287.1631049990919
C 42.34638392288888 38.12771453829311 289.5567884629615
C 41.2567649157016 34.6226997013238 290.6124567081841
C 44.687882632584795 33.883763111776815 292.10883537080286
C 44.64414073664481 37.1094970543215 294.09927538391105
C 41.841265534725146 35.22173764344052 295.8785217097262
C 43.72411334605839 31.953981178653475 296.4614859628785
C 46.930534048024185 33.73520260231889 297.4478412843626
C 44.94284581430083 35.852735977201114 299.896054722801
C 43.42639188671523 32.72099580161129 301.4478391569089
C 46.75429719306768 30.88899836753964 301.5488772440912
C 48.54952214347281 33.77426377625348 303.26864792850813
C 45.6214656865341 33.947214608498825 305.69080178107987
C 45.90373256001896 30.204178970051025 306.3281466405218
C 49.6594621037356 30.683769517670076 306.7360478977717
C 49.35468167561613 33.616242473905686 309.15278858873336
C 47.32603423209914 31.382784213953183 311.4577181625348
C 49.322432089502115 28.181573862333185 311.0194309776368
C 52.50197666673593 30.137525662228363 311.7895381271462
C 50.99211710230761 31.539719198458982 314.9888853033134
C 49.875054627823 28.030308846442047 315.91138332370406
C 53.32566404996048 26.45804391118261 315.6385305426861
C 54.953014612359176 29.483385923804498 317.2662050876215
C 52.6269116681654 29.559895158564117 320.2776020017252
C 52.69721491753703 25.75764355261027 320.53560406959446
C 56.49934155215054 25.528975462641522 320.68495677794067
C 56.68940710863247 28.69289461675112 322.8023465024055
C 54.476966808549854 27.238788905698573 325.5652630090222
C 54.36296239844908 23.423809953721825 325.32464977966663
C 58.159084665181076 23.20210913537299 324.9344706449915
C 59.662681550324955 26.281855469222684 326.6087298474296
C 56.75323140229104 27.000626432590227 328.9904698098365
C 57.370837894044335 30.7356495384777 328.60064670522763
C 54.86508043740039 33.28050072661226 329.890318635078
C 52.701359544741244 35.666946430722 327.88119753181076
C 52.19607343424056 39.27913246063532 328.91513602829605
C 49.035947454618054 41.16332852750536 327.9216126680906
C 50.30660336097618 42.438287241806016 324.566661961292
C 52.16553861669094 39.27033747490215 323.54829423663557
C 48.9792431707828 37.30535394285584 324.24388085026
C 46.62470993689385 39.55606341227313 322.26323713222297
C 49.06668568615582 39.699540646732764 319.3475483773881
C 48.95191108033983 35.90419813889854 319.0659931401565
C 45.16512621936752 35.8409174443361 319.4129999431267
C 44.772158741038105 38.81371184064643 317.07813164887176
C 46.86126069127408 37.057634226243565 314.451504843712
C 44.518416245563834 34.07030678656088 314.54576401846083
C 41.56026572312939 36.460033295019386 314.58524646811856
C 43.023849508540465 38.277333941378394 311.5730915132012
C 43.57246721250735 34.98639030540278 309.7357464792786
C 39.87178694315769 34.12151760400847 309.9041071993679
C 38.772192363686365 37.698317157483075 309.2346448610824
C 40.744410562135 37.89302609414965 305.99158517241017
C 39.44557046359596 34.42922609853808 305.0815105439431
C 35.84233136154092 35.62327113434566 305.3778013630212
C 36.83399548926518 38.917618589742865 303.766376778824
C 38.27423437292856 36.99250278653364 300.82142150939836
C 35.10461664271014 34.92529195923393 300.36225522284946
C 33.22734266965039 38.233189219608164 300.39362962404255
C 35.310306345064724 39.71303633532277 297.5770065688706
C 34.89087894031108 36.4851685314853 295.6110975919578
C 31.11042089543923 36.809762167256984 295.86243729632923
C 31.395456622857143 40.32033566955789 294.4057640604242
C 33.49624118107716 39.05138093781284 291.50180266663
C 30.875935101656673 36.40287005843454 290.7471731657113
C 28.094654478628563 38.98487015761352 291.02116109129173
C 29.86652052398597 41.06240948371561 288.36753797719695
C 30.34671207009611 37.97201047872734 286.1865947692199
C 26.62089965553093 37.212927349678296 286.45039071911583
C 25.256380954155823 40.733179718553544 285.94852860646057
C 27.910528240241316 42.00396993264036 283.48672744850194
C 29.07058153009301 38.90874886459808 281.58011699034125
C 30.059272465194987 40.91730762105573 278.5030986389685
C 32.30916655721829 43.50617350640669 280.1794551409439
C 33.379656092827084 41.39634436822967 283.1808015989475
C 36.96370394193639 41.004204743857265 281.95031407026187
C 37.492501866696294 44.77391031727055 281.7436807067993
C 35.76614326706659 45.54346215032575 285.0688053427966
C 37.5725768230165 43.10549540388266 287.3851738442847
C 41.238585614263606 43.70882449130745 286.56050178628095
C 44.56287864074786 43.051970018743795 288.25725519383195
C 44.865009008208915 46.61257541763361 289.656620891995
C 41.22635767335445 46.52054946006753 290.78214265730213
C 41.65967046656098 43.18274156021109 292.55455640461565
C 44.836183250093974 44.25496428080306 294.3694385492043
C 43.14818207306578 47.37442799072274 295.7532468281946
C 40.11906102080477 45.410308553397655 296.94940506522386
C 42.244964702413895 42.80968757457114 298.7360736666844
C 44.68853346557858 45.326284991796314 300.2172552691302
C 41.76359349108857 47.29481669275157 301.6410652673717
C 40.10914722764418 44.13867787814258 302.92569154716034
C 43.222128256682275 43.0146356084308 304.80334554245763
C 43.70974857097802 46.39203015727015 306.47472781591205
C 40.10078471333407 46.184500226900006 307.6411582736681
C 40.76595009826577 42.609973653763575 308.76281153772635
C 44.0051611153943 43.539762172073765 310.54692850991717
C 42.40042344102882 46.53826885971853 312.2379005858405
C 39.91734571000824 44.32404440946029 314.0762456095929
C 42.67091068428773 42.133544003775256 315.5140338753446
C 44.64449148489701 45.163576935590775 316.66812062314744
C 41.55543202989032 46.86022117657724 318.1932495810314
C 41.513986488927465 44.38968672127497 321.1135736233642
C 45.29619824810034 44.55094380595793 321.32775986250977
C 45.076585878985256 48.32636203937577 321.27571565009754
C 42.037509788531274 49.36206026442917 323.33657920316
C 39.18426219794011 46.923753084428455 324.0211572486389
C 40.22212632289167 44.926336945963946 327.09731915589146
C 39.38468020492151 43.54812498977696 330.49670380448947
C 42.392227480734775 45.30760620467225 332.0174998957479
C 42.102418664358424 48.645230173900174 330.2289046727097
C 38.29399092500948 48.89834490577561 330.3803630654773
C 37.62880347841815 46.96552689343867 333.6216065142735
C 34.88039931608495 45.286806169702004 331.59607725401304
C 33.3717231794022 41.81906969246629 331.8741781273341
C 35.95241959803529 39.2498946480413 330.8469781805529
C 35.43457097115317 36.33378184470254 328.47134333048143
C 35.19948785648203 32.895182522910495 330.07586706710686
C 37.27798182727582 31.45027223116647 327.2085429365712
C 40.00608483051133 33.94636751159523 326.34320848294436
C 42.02171054614468 35.97054754715935 328.87285172089537
C 42.17173258692263 39.76478411870982 328.52597778538
C 39.283341342572555 39.73484324754953 326.0034499010112
C 36.31600436526401 42.08525012101441 326.31648687087295
C 32.889070766663274 40.48627041631975 326.01662257250644
C 31.415861497870846 43.40380951727253 324.07540967126437
C 34.27476957658116 43.248233676155884 321.57854752473594
C 33.29106555940423 39.67227799465762 320.7212866525065
C 29.69542512959905 40.71005668190501 320.0496407879407
C 31.04172324438638 43.20403892534146 317.51180598451924
C 33.435779025435714 40.61311000990494 316.0851517674193
C 30.890908469815034 37.77823880398155 316.0291395378854
C 28.17805051800184 39.96835504580079 314.5347307215535
C 30.452642637446836 41.23841880739473 311.76860982421925
C 31.556671118025786 37.79370215407541 310.59440191052767
C 28.099349131262215 36.27880863605345 311.1323013734034
C 26.47558336400771 38.87672736678107 308.87396165022693
C 29.197281587613695 38.45454528400396 306.2607884339341
C 28.92401632857717 34.65835309207152 306.346063977098
C 25.124335692008895 34.770280149316534 306.16355918387944
C 25.452370822240074 36.85774640925688 303.00787910572103
C 28.23243474642539 34.68601006352962 301.5584550973161
C 26.119381903567653 31.564999412319498 302.06157012640125
C 23.190095625942355 33.1744486653068 300.2519180866621
C 25.450496597852542 34.57323042315405 297.5340376520284
C 27.30011795679159 31.319089877946325 296.8530899498204
C 23.9638310159487 29.525614372884565 296.4253898229811
C 22.754134539682404 32.18943045847159 293.9897332643716
C 26.097819922286426 32.08109105823341 292.15025323811346
C 25.923285728913505 28.29993137504611 291.7739251074047
C 22.251974026962152 28.46262139018928 290.75090555327824
C 22.989312096594208 31.095017736695905 288.10682270278477
C 25.90962086906389 28.970157540512325 286.9000503931591
C 23.497934299205966 26.122161309847602 286.1202829060651
C 20.898146625867078 28.335357930838143 284.4179750965177
C 22.84945141113727 28.48915351248243 281.14541547472817
C 24.4789163368064 25.061538120789056 281.25564507404687
C 25.23901812864356 22.219578000471166 283.5754973015416
C 28.659856065312354 20.696219025094337 282.9987239892872
C 27.879517053305428 16.968243818948462 283.2381519481971
C 28.995685373197833 14.40776708148897 280.66952403002676
C 27.548096921274375 10.90544731149671 280.392151212912
C 29.46001724454066 8.019655406624384 278.8328986288527
C 27.713013671082 4.70758496790584 278.104965782933
C 29.8764592554451 1.9500071513225252 276.647558079173
C 29.33369185366083 -1.607180679893933 275.502911530822
C 32.459290078466935 -3.7723626743256213 275.5424703868553
C 33.220744023808955 -7.486853027789248 275.9111091150363
C 37.02430076579421 -7.6006001773305 275.692844755088
C 37.49875546400576 -4.107439983971909 277.146294636456
C 38.732010442933344 -2.1640118637112074 274.11138541106357
C 35.73793477829907 0.16734955683646455 274.151891252483
C 35.90960071003586 0.3366640894642678 277.9610041490299
C 39.53477829390265 1.4645454916908325 277.7565113865152
C 38.531788653427036 3.9463757771007573 275.0502688826077
C 35.75874220666238 5.3881489200751185 277.2186087621982
C 37.99144610562053 5.588145287381209 280.3011884769372
C 40.569210180918 7.494227572387186 278.2490540931132
C 37.93770696076416 9.960858384271882 277.0230790779932
C 36.65809900965827 10.17984414872013 280.60080255274517
C 39.88582438561478 11.60769363218481 282.03064295100233
C 40.39207910546478 14.182127744050375 279.2618495031628
C 36.9109536572973 15.577196899483205 279.91810785003787
C 37.4418938880184 15.360678106282041 283.68406839076044
C 40.50223111714283 17.613131490065083 283.3661660210064
C 38.64123196830576 20.004081629912818 281.05277781836793
C 35.962932027924666 20.833314934688236 283.63392168729484
C 33.19178234562361 18.281149405076928 283.0696870314589
C 31.524296457055982 16.309928240758918 285.8487895077802
C 32.01577280269115 12.972224127823308 284.07565253624955
C 29.711982518486696 9.99546574722691 284.7375573543636
C 30.852287555749324 6.751076180963238 283.08709505926885
C 28.514915710133693 3.7418935693233446 283.05054657301054
C 28.450745640824188 0.3076787904455897 281.4441005604549
C 25.50726056059023 -0.19817325991871326 279.0856908868839
C 24.511204209831895 -3.386669180714875 280.93107340771843
C 23.70454468683284 -1.38321003102279 284.08926220925457
C 21.494459221386148 1.4378314848948774 282.7442726209546
C 17.80606710165812 1.8879459676676158 281.98742189970716
C 17.00673650854096 3.750939926663662 278.77811683594126
C 14.07513157402127 5.774451270606053 280.1217906101132
C 15.237902837608994 9.318931722536384 280.81304110593044
C 18.87014859366545 8.19465435616788 280.81448521205067
C 20.29248880348915 11.360272356584648 279.24387256629757
C 18.41368064216811 13.74509407527204 281.54509869323675
C 20.60875972734148 16.05523182189891 283.5962517713756
C 23.53568722628874 15.712608545644748 281.1778441634538
C 24.307111677161004 18.168782604870145 278.3877745057364
C 26.976324702180538 15.948504472233394 276.8297534041125
C 26.39749772308568 12.24907916641532 276.14774264288525
C 28.964308899123814 9.923398019722045 274.5752102887498
C 27.77674869591081 6.501004144587586 273.4491333927196
C 30.438032726573542 3.889911103398778 272.7174253736276
C 29.85638087688863 0.4413907178403601 271.2769180850837
C 31.896399209783464 -2.2594786119552293 269.55620147276625
C 30.73864090648041 -4.11148166360536 266.4403468892723
C 30.158968483685292 -7.8798367319054 266.41450385459285
C 28.88036284087763 -8.712257260922849 262.9431086054197
C 29.706801733824815 -12.416028865507165 262.6270483683351
C 28.218017207153835 -12.48170801229944 259.1333886625148
C 25.90770618616713 -9.462776876011585 259.5402261731373
C 26.221402394409594 -6.253069825702069 261.57810042431106
C 25.519138601714484 -6.394611149791598 265.3057814146675
C 26.020487336623326 -4.137820016019593 268.3038096518962
C 27.80298652280624 -5.357689258087919 271.4065189187901
C 25.179560638890546 -7.322398711635258 273.27868438281683
C 25.048632302838595 -5.154984782671714 276.4016066714431
C 24.211904219805255 -2.121620090738958 274.24725290674644
C 21.271398814706703 -3.5650161652458503 272.2951898020991
C 18.612811494072364 -2.9730636301126823 275.0163252706337
C 19.62079818265868 0.6943175879573221 275.0961969810748
C 19.74057069679028 0.905728147326611 271.3094190670577
C 16.262921797748035 -0.5955856520446494 270.9670894192636
C 14.776228742382754 1.970020658772282 273.378313036761
C 17.004271652135873 4.903051552939451 272.4555690329683
C 14.03093992027532 7.201471282548704 271.7950457801539
C 13.252779087453366 7.103381503462787 275.54220019468283
C 16.62792281272909 8.532783172726942 276.5904676781628
C 15.905194286767141 12.204311808913056 275.8933440310453
C 18.316669113668006 12.556817202259783 272.95668474524797
C 16.353734101775274 15.170623278639598 270.991782378763
C 18.100080076590903 18.524630102637957 271.1850245670687
C 20.915180795655186 17.112846617250305 273.30359952109603
C 24.611849565434866 17.12717087966912 272.40062759780477
C 25.914141773980376 13.621218578284275 271.65902484159955
C 28.80759304244549 11.869502826913026 269.95009394369464
C 29.701813728310015 8.248642823985593 269.32015663539704
C 32.8169014419969 6.104340424834648 269.51907313194766
C 33.53616118439006 2.423160433727229 269.08563177178854
C 36.17708649888965 -0.2496017656655667 268.567164216455
C 36.22399052979366 -2.3980967799120836 265.44773051688657
C 38.5299671434667 -3.955311569402204 262.87495456828026
C 38.82959357344207 -3.04267330916138 259.207425686378
C 39.05252176725623 -6.641354367144732 257.94831855631196
C 35.28309222736918 -6.897637211336461 258.45580949587395
C 32.932102614705364 -5.6229114301098475 255.78911700556148
C 31.370001531057923 -2.9027721976023897 257.95866846261146
C 34.16945561051621 -1.3093595563724663 259.96832764956605
C 32.619559061440754 -0.030675231218645026 263.2067338343334
C 29.133006486098637 -0.5056718431210924 261.79022824343923
C 27.862408866702093 -0.11024265530209652 265.35473917811834
C 28.75778935728797 3.5841478176943795 265.58944398434534
C 27.159582565766993 4.102389937729528 262.16984051878944
C 23.912739259068832 2.5569365912094364 263.4065895691156
C 23.96031780252116 4.553673009894559 266.6480189105627
C 24.70016510163094 7.858503105598969 264.9048768729341
C 21.961519878705737 7.320809005513586 262.3059541543548
C 19.410240456502823 6.666416824883276 265.0463777666301
C 20.672387279617897 9.670921018343437 267.0075205835154
C 20.18115600570799 11.790488809206128 263.88246169051735
C 16.680312767152603 10.38820016814482 263.41474450146103
C 15.922529165097679 11.33497785695828 267.0356834049836
C 16.92679896229792 14.972446505857093 266.58513799160477
C 20.03967687048533 14.797237058871062 268.7371458416617
C 22.67070472283693 17.485568709842827 268.1572575050143
C 25.669259490047477 15.425146448791834 267.0411877171666
C 28.681607028752854 17.545169869271017 267.9400104603464
C 31.162061594399585 15.82353573316832 265.6149156432635
C 31.857560388043378 12.669028479771894 263.65090818847756
C 32.23772541177048 9.389209834081846 265.4590153770579
C 35.4988857346693 7.931030341315915 266.71780183398323
C 36.24050781172067 4.638848297025675 264.9380717509224
C 39.18507982891545 2.7333529642729686 266.41758363485405
C 40.85293395950065 0.06847772504883166 264.27864398616845
C 42.619920069217464 -2.758194976869387 266.0613034702319
C 44.04928159695708 -2.1661767021603073 269.51502896630836
C 42.912488992414815 1.1510975496732998 271.04714121564984
C 46.08389407545451 1.43746386137759 273.12660996778277
C 48.05802261030109 1.6958643153825559 269.8605351699002
C 45.79759747620321 4.576281132551525 268.71002593514635
C 45.68830172860974 6.659519692796936 271.9024336727793
C 46.62364324971596 9.937955995001563 270.1850236870349
C 43.375603193692335 9.801808384881774 268.20170703806076
C 41.206272754553865 8.973640893506973 271.2252990341186
C 42.64398158037777 11.932198133503999 273.1337653472966
C 42.43782487164761 14.11396667256009 270.02984067678176
C 38.78777042448769 13.181170720841257 269.51644559318885
C 37.97489544500581 13.83863853982319 273.1785518764797
C 39.58108898134876 17.26261255989676 272.77970542250324
C 37.283274983046375 18.109558172775404 269.87193301678116
C 34.19099529273121 16.82292053736117 271.6972895869484
C 35.25187552336439 18.89342408801322 274.71881037983053
C 34.143992399017264 22.09485499388152 272.9925754742148
C 30.492890479109608 21.02224829826439 272.92598698680484
C 29.877282073124107 23.29687423524192 275.9278263757238
C 31.715878797000222 26.654814216770678 275.8116011346408
C 34.768988704419634 27.08983260482638 278.0337998655375
C 33.20718537183443 30.051044851170765 279.8549093477308
C 30.178312599449058 28.011777628424674 280.94142251001267
C 32.29300307994716 25.13524534845007 282.2608568128272
C 34.759373811557545 27.53255727360824 283.8827687786143
C 31.965077462679943 29.470582789342274 285.5941910908651
C 30.612515146003506 26.172289593500967 286.9610946429961
C 33.889911575541916 24.893979026128793 288.39001833889535
C 34.562169798202426 28.350984770942535 289.87190055725966
C 31.118203526801828 28.23339088396069 291.47372585600675
C 31.630570407268667 24.61323309102577 292.5721179181344
C 35.07581229352444 25.407091875105554 293.9992011518475
C 33.815620303906755 28.363125462377806 296.04623933762184
C 30.993244222435273 26.411053571089205 297.6893671794956
C 33.495904079033565 23.74197881603553 298.72444717192917
C 35.80593983108197 26.335696178768796 300.302475542292
C 32.775240411373076 27.745624973735048 302.1184284724411
C 31.41040235410612 24.422255826893956 303.4076880668485
C 34.8556415345754 23.419084607730174 304.6655505865952
C 35.17467318606162 26.79228191835329 306.4003431983686
C 31.797202585348355 26.37017633466273 308.11691977799705
C 32.62948611733727 22.81696363612628 309.1990613724641
C 35.953200860038166 23.736763708065187 310.80193051024725
C 35.492773594668186 27.254608513358335 312.16663398787927
C 31.73842010765067 27.02015146140347 312.71811719275064
C 31.864427002315086 25.02609672614862 315.95645407841994
C 34.39305546615691 27.421096382788416 317.5034720107091
C 32.12210750432486 30.333677840887862 316.59171415342547
C 29.219376031957093 28.56391417568004 318.29605960800063
C 31.39557194211912 28.264633531790125 321.40247128084667
C 32.0708475487644 32.00587873454661 321.31238824012917
C 28.32892979535861 32.604766055689666 320.9651952475911
C 27.772170243245004 30.529892109121697 324.10277638160426
C 30.343946812016693 32.73210816960549 325.85065586134766
C 28.908225788713434 36.177863908447605 325.10538381260557
C 25.17087349745232 35.741525218536594 325.6767050882728
C 25.173089786867273 33.328098614439476 328.607521020206
C 27.784233785538696 31.478064221206758 330.633879632024
C 29.84040368271749 28.47734415821137 329.53765802641277
C 29.383913400089465 24.839997356575584 330.51358756021114
C 31.974719537627074 22.386781160680062 331.76899409893696
C 31.238853041693627 20.398094198611204 328.60480968058056
C 31.662807225912708 23.2948608655983 326.17117154530774
C 35.06678720977627 24.120452072453062 327.6877656657328
C 36.1203604664089 20.53467318683251 326.8819744008427
C 34.95435726109085 20.247955597339452 323.2688237295904
C 36.63294850821081 23.624406694499605 322.7164128452142
C 40.03295848732166 21.911143415485384 322.8541870995524
C 39.00574585660262 19.79511735209332 319.85597058292757
C 36.967458214307186 22.447270692181803 318.05167462025327
C 39.997374320733734 24.74429619685584 318.04541715518656
C 41.96976490630293 21.962770674721778 316.34537849265365
C 39.29084991418948 21.898722402210748 313.65749901232505
C 40.24515959765751 25.519171703684272 312.98900064572683
C 43.78227270448859 24.399225028205045 312.10756725640806
C 42.89937926885098 21.639764560780886 309.65283421559576
C 40.85740579567993 24.154114019083938 307.6761567991622
C 44.19609170863603 25.76658768648709 306.8207176333273
C 45.57948738533553 22.331669905370152 305.8793748802638
C 42.86859386787565 21.122598281416476 303.50650898401807
C 42.542767940644566 24.43821671416485 301.6590143800798
C 45.932434834309824 23.94702830607217 299.93831090001885
C 44.68188744081027 20.420885206509848 299.2134867452571
C 41.48701534315904 21.837384385964587 297.69733597005563
C 43.440857323981156 24.252973188925075 295.50253895572166
C 45.531254027852285 21.376559245435637 294.1496797590588
C 42.58775062723272 19.154863483948294 293.2174339015408
C 40.47152695139995 21.772207528147536 291.41694384722354
C 42.86664762280066 24.400519896591653 290.0142689790412
C 44.21995894506094 22.594019365102326 286.94918343108486
C 46.44623033200519 25.60003803167195 286.1537821197161
C 48.12087327774808 25.50737972573626 289.5764493661574
C 49.152065732915176 21.884284232936217 289.0239162275013
C 50.94191305413574 22.84971674858582 285.80882440231767
C 52.64507395513065 25.846902487280175 287.4318246836759
C 53.789083268064864 23.412967079279955 290.13059551432764
C 55.21330373395035 20.97157431817266 287.577579651694
C 56.88421899190217 23.95557337111382 285.87938854487595
C 59.25295857766462 23.976435234933152 288.86543793675673
C 59.42461146523377 20.165392823977893 288.6091741885113
439
Mode 10 - Frame 23
C 49.195898891278794 36.050918929319124 337.4246664028876
C 50.60506361406442 33.85581996824669 338.764461838717
C 50.42470668799422 30.619279336336607 336.8140171780185
C 50.22193522645836 32.9986763639952 333.84907121210085
C 47.48883349369014 33.935563558052245 331.39280171854887
C 49.00084107093958 32.19289874524367 328.3732306450332
C 47.8851949024096 31.380321635930166 324.8429011653236
C 46.9593287772403 27.709632590034285 324.3673169401295
C 46.658422096421035 27.20102340807744 328.1493868654902
C 43.31372847842505 25.413295679068316 328.1377347868147
C 41.53748505632089 23.347113184499364 330.7982009850023
C 43.102541895236335 20.092716315290676 329.46955541763856
C 40.905158209482295 17.445230361449024 331.0686113916302
C 43.071914481971056 14.330801395410932 330.6392560746079
C 41.59796534608513 10.870760170477485 330.0334033692617
C 45.058763538742134 9.36254734352103 329.4418340176472
C 48.64415553511637 10.42417690346539 330.1809640279474
C 51.47412871875184 10.836641499486086 329.2286356829983
C 51.05856021165051 9.148670173018699 325.84448226781785
C 48.36761467617584 11.72000449593435 325.0860321776787
C 50.642244939445334 14.53587858350774 326.268594617258
C 53.57581354073219 13.136947064637173 324.3047273164518
C 51.7644145256091 11.801340695750495 321.22918977104416
C 49.30417168285176 14.693113989778945 320.8803209767835
C 52.19452918161284 17.136552108610207 321.2472465754187
C 54.2825611510919 15.657389883402626 318.42518523855773
C 51.13969145204624 15.03564272594455 316.3674080840384
C 49.816892108309986 18.586744902586382 316.7368881140555
C 53.235800734888954 20.147494325823295 316.1455828773611
C 53.797511376650604 18.0568316458365 313.0107004161246
C 50.32814462500971 18.948677421852814 311.72137623425743
C 51.05204066798693 22.636749909566518 312.2695761551787
C 54.44573567706424 22.687515621999093 310.55610223899754
C 52.99297486819994 20.732882835600385 307.6302839098285
C 50.38566125490013 23.475794598885855 307.1769635740673
C 52.939814807105016 26.29544458930061 307.2704384955702
C 55.002560430140825 24.597647428275216 304.5651716162915
C 52.0963006110454 23.57666769178543 302.33846590028736
C 50.57337289781909 27.063522766017584 302.50090175918143
C 54.05862559967375 28.464927750012855 301.9314507916361
C 54.1458575920775 26.192926746248396 298.87639741278497
C 50.9318962257409 27.74402368471014 297.5329565991154
C 52.351049499309184 31.227248568140617 298.1172770060726
C 55.43883381185744 30.196165828707034 296.1364381810989
C 53.92902929898199 28.90494429103922 292.88294574912777
C 51.71922552851256 31.99848021377406 292.6141174480322
C 54.427950028628096 34.625870618667804 293.1129858369238
C 56.80273269276798 32.450312325010984 291.07439019361436
C 54.73704029111122 32.30974793282518 287.87154151368065
C 53.481881590401656 35.370704404682 286.0038785445556
C 50.60749253014358 33.5299722249479 284.3049600428098
C 48.909969911406705 33.41935452771677 287.7388870478829
C 49.878446951760885 36.65217669639972 289.5342333986585
C 48.15461968960632 38.52047674211808 286.68438674259244
C 44.90199303530791 36.57111465760053 287.1631049990919
C 42.34638392288888 38.12771453829311 289.5567884629615
C 41.2567649157016 34.6226997013238 290.6124567081841
C 44.687882632584795 33.883763111776815 292.10883537080286
C 44.64414073664481 37.1094970543215 294.09927538391105
C 41.841265534725146 35.22173764344052 295.8785217097262
C 43.72411334605839 31.953981178653475 296.4614859628785
C 46.930534048024185 33.73520260231889 297.4478412843626
C 44.94284581430083 35.852735977201114 299.896054722801
C 43.42639188671523 32.72099580161129 301.4478391569089
C 46.75429719306768 30.88899836753964 301.5488772440912
C 48.54952214347281 33.77426377625348 303.26864792850813
C 45.6214656865341 33.947214608498825 305.69080178107987
C 45.90373256001896 30.204178970051025 306.3281466405218
C 49.6594621037356 30.683769517670076 306.7360478977717
C 49.35468167561613 33.616242473905686 309.15278858873336
C 47.32603423209914 31.382784213953183 311.4577181625348
C 49.322432089502115 28.181573862333185 311.0194309776368
C 52.50197666673593 30.137525662228363 311.7895381271462
C 50.99211710230761 31.539719198458982 314.9888853033134
C 49.875054627823 28.030308846442047 315.91138332370406
C 53.32566404996048 26.45804391118261 315.6385305426861
C 54.953014612359176 29.483385923804498 317.2662050876215
C 52.6269116681654 29.559895158564117 320.2776020017252
C 52.69721491753703 25.75764355261027 320.53560406959446
C 56.49934155215054 25.528975462641522 320.68495677794067
C 56.68940710863247 28.69289461675112 322.8023465024055
C 54.476966808549854 27.238788905698573 325.5652630090222
C 54.36296239844908 23.423809953721825 325.32464977966663
C 58.159084665181076 23.20210913537299 324.9344706449915
C 59.662681550324955 26.281855469222684 326.6087298474296
C 56.75323140229104 27.000626432590227 328.9904698098365
C 57.370837894044335 30.7356495384777 328.60064670522763
C 54.86508043740039 33.28050072661226 329.890318635078
C 52.701359544741244 35.666946430722 327.88119753181076
C 52.19607343424056 39.27913246063532 328.91513602829605
C 49.035947454618054 41.16332852750536 327.9216126680906
C 50.30660336097618 42.438287241806016 324.566661961292
C 52.16553861669094 39.27033747490215 323.54829423663557
C 48.9792431707828 37.30535394285584 324.24388085026
C 46.62470993689385 39.55606341227313 322.26323713222297
C 49.06668568615582 39.699540646732764 319.3475483773881
C 48.95191108033983 35.90419813889854 319.0659931401565
C 45.16512621936752 35.8409174443361 319.4129999431267
C 44.772158741038105 38.81371184064643 317.07813164887176
C 46.86126069127408 37.057634226243565 314.451504843712
C 44.518416245563834 34.07030678656088 314.54576401846083
C 41.56026572312939 36.460033295019386 314.58524646811856
C 43.023849508540465 38.277333941378394 311.5730915132012
C 43.57246721250735 34.98639030540278 309.7357464792786
C 39.87178694315769 34.12151760400847 309.9041071993679
C 38.772192363686365 37.698317157483075 309.2346448610824
C 40.744410562135 37.89302609414965 305.99158517241017
C 39.44557046359596 34.42922609853808 305.0815105439431
C 35.84233136154092 35.62327113434566 305.3778013630212
C 36.83399548926518 38.917618589742865 303.766376778824
C 38.27423437292856 36.99250278653364 300.82142150939836
C 35.10461664271014 34.92529195923393 300.36225522284946
C 33.22734266965039 38.233189219608164 300.39362962404255
C 35.310306345064724 39.71303633532277 297.5770065688706
C 34.89087894031108 36.4851685314853 295.6110975919578
C 31.11042089543923 36.809762167256984 295.86243729632923
C 31.395456622857143 40.32033566955789 294.4057640604242
C 33.49624118107716 39.05138093781284 291.50180266663
C 30.875935101656673 36.40287005843454 290.7471731657113
C 28.094654478628563 38.98487015761352 291.02116109129173
C 29.86652052398597 41.06240948371561 288.36753797719695
C 30.34671207009611 37.97201047872734 286.1865947692199
C 26.62089965553093 37.212927349678296 286.45039071911583
C 25.256380954155823 40.733179718553544 285.94852860646057
C 27.910528240241316 42.00396993264036 283.48672744850194
C 29.07058153009301 38.90874886459808 281.58011699034125
C 30.059272465194987 40.91730762105573 278.5030986389685
C 32.30916655721829 43.50617350640669 280.1794551409439
C 33.379656092827084 41.39634436822967 283.1808015989475
C 36.96370394193639 41.004204743857265 281.95031407026187
C 37.492501866696294 44.77391031727055 281.7436807067993
C 35.76614326706659 45.54346215032575 285.0688053427966
C 37.5725768230165 43.10549540388266 287.3851738442847
C 41.238585614263606 43.70882449130745 286.56050178628095
C 44.56287864074786 43.051970018743795 288.25725519383195
C 44.865009008208915 46.61257541763361 289.656620891995
C 41.22635767335445 46.52054946006753 290.78214265730213
C 41.65967046656098 43.18274156021109 292.55455640461565
C 44.836183250093974 44.25496428080306 294.3694385492043
C 43.14818207306578 47.37442799072274 295.7532468281946
C 40.11906102080477 45.410308553397655 296.94940506522386
C 42.244964702413895 42.80968757457114 298.7360736666844
C 44.68853346557858 45.326284991796314 300.2172552691302
C 41.76359349108857 47.29481669275157 301.6410652673717
C 40.10914722764418 44.13867787814258 302.92569154716034
C 43.222128256682275 43.0146356084308 304.80334554245763
C 43.70974857097802 46.39203015727015 306.47472781591205
C 40.10078471333407 46.184500226900006 307.6411582736681
C 40.76595009826577 42.609973653763575 308.76281153772635
C 44.0051611153943 43.539762172073765 310.54692850991717
C 42.40042344102882 46.53826885971853 312.2379005858405
C 39.91734571000824 44.32404440946029 314.0762456095929
C 42.67091068428773 42.133544003775256 315.5140338753446
C 44.64449148489701 45.163576935590775 316.66812062314744
C 41.55543202989032 46.86022117657724 318.1932495810314
C 41.513986488927465 44.38968672127497 321.1135736233642
C 45.29619824810034 44.55094380595793 321.32775986250977
C 45.076585878985256 48.32636203937577 321.27571565009754
C 42.037509788531274 49.36206026442917 323.33657920316
C 39.18426219794011 46.923753084428455 324.0211572486389
C 40.22212632289167 44.926336945963946 327.09731915589146
C 39.38468020492151 43.54812498977696 330.49670380448947
C 42.392227480734775 45.30760620467225 332.0174998957479
C 42.102418664358424 48.645230173900174 330.2289046727097
C 38.29399092500948 48.89834490577561 330.3803630654773
C 37.62880347841815 46.96552689343867 333.6216065142735
C 34.88039931608495 45.286806169702004 331.59607725401304
C 33.3717231794022 41.81906969246629 331.8741781273341
C 35.95241959803529 39.2498946480413 330.8469781805529
C 35.43457097115317 36.33378184470254 328.47134333048143
C 35.19948785648203 32.895182522910495 330.07586706710686
C 37.27798182727582 31.45027223116647 327.2085429365712
C 40.00608483051133 33.94636751159523 326.34320848294436
C 42.02171054614468 35.97054754715935 328.87285172089537
C 42.17173258692263 39.76478411870982 328.52597778538
C 39.283341342572555 39.73484324754953 326.0034499010112
C 36.31600436526401 42.08525012101441 326.31648687087295
C 32.889070766663274 40.48627041631975 326.01662257250644
C 31.415861497870846 43.40380951727253 324.07540967126437
C 34.27476957658116 43.248233676155884 321.57854752473594
C 33.29106555940423 39.67227799465762 320.7212866525065
C 29.69542512959905 40.71005668190501 320.0496407879407
C 31.04172324438638 43.20403892534146 317.51180598451924
C 33.435779025435714 40.61311000990494 316.0851517674193
C 30.890908469815034 37.77823880398155 316.0291395378854
C 28.17805051800184 39.96835504580079 314.5347307215535
C 30.452642637446836 41.23841880739473 311.76860982421925
C 31.556671118025786 37.79370215407541 310.59440191052767
C 28.099349131262215 36.27880863605345 311.1323013734034
C 26.47558336400771 38.87672736678107 308.87396165022693
C 29.197281587613695 38.45454528400396 306.2607884339341
C 28.92401632857717 34.65835309207152 306.346063977098
C 25.124335692008895 34.770280149316534 306.16355918387944
C 25.452370822240074 36.85774640925688 303.00787910572103
C 28.23243474642539 34.68601006352962 301.5584550973161
C 26.119381903567653 31.564999412319498 302.06157012640125
C 23.190095625942355 33.1744486653068 300.2519180866621
C 25.450496597852542 34.57323042315405 297.5340376520284
C 27.30011795679159 31.319089877946325 296.8530899498204
C 23.9638310159487 29.525614372884565 296.4253898229811
C 22.754134539682404 32.18943045847159 293.9897332643716
C 26.097819922286426 32.08109105823341 292.15025323811346
C 25.923285728913505 28.29993137504611 291.7739251074047
C 22.251974026962152 28.46262139018928 290.75090555327824
C 22.989312096594208 31.095017736695905 288.10682270278477
C 25.90962086906389 28.970157540512325 286.9000503931591
C 23.497934299205966 26.122161309847602 286.1202829060651
C 20.898146625867078 28.335357930838143 284.4179750965177
C 22.84945141113727 28.48915351248243 281.14541547472817
C 24.4789163368064 25.061538120789056 281.25564507404687
C 25.23901812864356 22.219578000471166 283.5754973015416
C 28.659856065312354 20.696219025094337 282.9987239892872
C 27.879517053305428 16.968243818948462 283.2381519481971
C 28.995685373197833 14.40776708148897 280.66952403002676
C 27.548096921274375 10.90544731149671 280.392151212912
C 29.46001724454066 8.019655406624384 278.8328986288527
C 27.713013671082 4.70758496790584 278.104965782933
C 29.8764592554451 1.9500071513225252 276.647558079173
C 29.33369185366083 -1.607180679893933 275.502911530822
C 32.459290078466935 -3.7723626743256213 275.5424703868553
C 33.220744023808955 -7.486853027789248 275.9111091150363
C 37.02430076579421 -7.6006001773305 275.692844755088
C 37.49875546400576 -4.107439983971909 277.146294636456
C 38.732010442933344 -2.1640118637112074 274.11138541106357
C 35.73793477829907 0.16734955683646455 274.151891252483
C 35.90960071003586 0.3366640894642678 277.9610041490299
C 39.53477829390265 1.4645454916908325 277.7565113865152
C 38.531788653427036 3.9463757771007573 275.0502688826077
C 35.75874220666238 5.3881489200751185 277.2186087621982
C 37.99144610562053 5.588145287381209 280.3011884769372
C 40.569210180918 7.494227572387186 278.2490540931132
C 37.93770696076416 9.960858384271882 277.0230790779932
C 36.65809900965827 10.17984414872013 280.60080255274517
C 39.88582438561478 11.60769363218481 282.03064295100233
C 40.39207910546478 14.182127744050375 279.2618495031628
C 36.9109536572973 15.577196899483205 279.91810785003787
C 37.4418938880184 15.360678106282041 283.68406839076044
C 40.50223111714283 17.613131490065083 283.3661660210064
C 38.64123196830576 20.004081629912818 281.05277781836793
C 35.962932027924666 20.833314934688236 283.63392168729484
C 33.19178234562361 18.281149405076928 283.0696870314589
C 31.524296457055982 16.309928240758918 285.8487895077802
C 32.01577280269115 12.972224127823308 284.07565253624955
C 29.711982518486696 9.99546574722691 284.7375573543636
C 30.852287555749324 6.751076180963238 283.08709505926885
C 28.514915710133693 3.7418935693233446 283.05054657301054
C 28.450745640824188 0.30767879044558966 281.4441005604549
C 25.50726056059023 -0.19817325991871326 279.0856908868839
C 24.511204209831895 -3.386669180714875 280.93107340771843
C 23.70454468683284 -1.38321003102279 284.08926220925457
C 21.494459221386148 1.4378314848948774 282.7442726209546
C 17.80606710165812 1.8879459676676158 281.98742189970716
C 17.00673650854096 3.750939926663662 278.77811683594126
C 14.07513157402127 5.774451270606053 280.1217906101132
C 15.237902837608994 9.318931722536384 280.81304110593044
C 18.87014859366545 8.19465435616788 280.81448521205067
C 20.29248880348915 11.360272356584648 279.24387256629757
C 18.41368064216811 13.74509407527204 281.54509869323675
C 20.60875972734148 16.05523182189891 283.5962517713756
C 23.53568722628874 15.712608545644748 281.1778441634538
C 24.307111677161004 18.168782604870145 278.3877745057364
C 26.976324702180538 15.948504472233394 276.8297534041125
C 26.39749772308568 12.24907916641532 276.14774264288525
C 28.964308899123814 9.923398019722045 274.5752102887498
C 27.77674869591081 6.501004144587586 273.4491333927196
C 30.438032726573542 3.889911103398778 272.7174253736276
C 29.85638087688863 0.4413907178403601 271.2769180850837
C 31.896399209783464 -2.2594786119552293 269.55620147276625
C 30.73864090648041 -4.11148166360536 266.4403468892723
C 30.158968483685292 -7.8798367319054 266.41450385459285
C 28.88036284087763 -8.712257260922849 262.9431086054197
C 29.706801733824815 -12.416028865507165 262.6270483683351
C 28.218017207153835 -12.48170801229944 259.1333886625148
C 25.90770618616713 -9.462776876011585 259.5402261731373
C 26.221402394409594 -6.253069825702069 261.57810042431106
C 25.519138601714484 -6.394611149791598 265.3057814146675
C 26.020487336623326 -4.137820016019593 268.3038096518962
C 27.80298652280624 -5.357689258087919 271.4065189187901
C 25.179560638890546 -7.322398711635258 273.27868438281683
C 25.048632302838595 -5.154984782671714 276.4016066714431
C 24.211904219805255 -2.121620090738958 274.24725290674644
C 21.271398814706703 -3.5650161652458503 272.2951898020991
C 18.612811494072364 -2.9730636301126823 275.0163252706337
C 19.62079818265868 0.6943175879573221 275.0961969810748
C 19.74057069679028 0.905728147326611 271.3094190670577
C 16.262921797748035 -0.5955856520446494 270.9670894192636
C 14.776228742382754 1.970020658772282 273.378313036761
C 17.004271652135873 4.903051552939451 272.4555690329683
C 14.03093992027532 7.201471282548704 271.7950457801539
C 13.252779087453366 7.103381503462787 275.54220019468283
C 16.62792281272909 8.532783172726942 276.5904676781628
C 15.905194286767141 12.204311808913056 275.8933440310453
C 18.316669113668006 12.556817202259783 272.95668474524797
C 16.353734101775274 15.170623278639598 270.991782378763
C 18.100080076590903 18.524630102637957 271.1850245670687
C 20.915180795655186 17.112846617250305 273.30359952109603
C 24.611849565434866 17.12717087966912 272.40062759780477
C 25.914141773980376 13.621218578284275 271.65902484159955
C 28.80759304244549 11.869502826913026 269.95009394369464
C 29.701813728310015 8.248642823985593 269.32015663539704
C 32.8169014419969 6.104340424834648 269.51907313194766
C 33.53616118439006 2.423160433727229 269.08563177178854
C 36.17708649888965 -0.2496017656655667 268.567164216455
C 36.22399052979366 -2.3980967799120836 265.44773051688657
C 38.5299671434667 -3.955311569402204 262.87495456828026
C 38.82959357344207 -3.04267330916138 259.207425686378
C 39.05252176725623 -6.641354367144732 257.94831855631196
C 35.28309222736918 -6.897637211336461 258.45580949587395
C 32.932102614705364 -5.6229114301098475 255.78911700556148
C 31.370001531057923 -2.9027721976023897 257.95866846261146
C 34.16945561051621 -1.3093595563724663 259.96832764956605
C 32.619559061440754 -0.030675231218645026 263.2067338343334
C 29.133006486098637 -0.5056718431210924 261.79022824343923
C 27.862408866702093 -0.11024265530209652 265.35473917811834
C 28.75778935728797 3.5841478176943795 265.58944398434534
C 27.159582565766993 4.102389937729528 262.16984051878944
C 23.912739259068832 2.5569365912094364 263.4065895691156
C 23.96031780252116 4.553673009894559 266.6480189105627
C 24.70016510163094 7.858503105598969 264.9048768729341
C 21.961519878705737 7.320809005513586 262.3059541543548
C 19.410240456502823 6.666416824883276 265.0463777666301
C 20.672387279617897 9.670921018343437 267.0075205835154
C 20.18115600570799 11.790488809206128 263.88246169051735
C 16.680312767152603 10.38820016814482 263.41474450146103
C 15.922529165097679 11.33497785695828 267.0356834049836
C 16.92679896229792 14.972446505857093 266.58513799160477
C 20.03967687048533 14.797237058871062 268.7371458416617
C 22.67070472283693 17.485568709842827 268.1572575050143
C 25.669259490047477 15.425146448791834 267.0411877171666
C 28.681607028752854 17.545169869271017 267.9400104603464
C 31.162061594399585 15.82353573316832 265.6149156432635
C 31.857560388043378 12.669028479771894 263.65090818847756
C 32.23772541177048 9.389209834081846 265.4590153770579
C 35.4988857346693 7.931030341315915 266.71780183398323
C 36.24050781172067 4.638848297025675 264.9380717509224
C 39.18507982891545 2.7333529642729686 266.41758363485405
C 40.85293395950065 0.06847772504883166 264.27864398616845
C 42.619920069217464 -2.758194976869387 266.0613034702319
C 44.04928159695708 -2.1661767021603073 269.51502896630836
C 42.912488992414815 1.1510975496732998 271.04714121564984
C 46.08389407545451 1.43746386137759 273.12660996778277
C 48.05802261030109 1.6958643153825559 269.8605351699002
C 45.79759747620321 4.576281132551525 268.71002593514635
C 45.68830172860974 6.659519692796936 271.9024336727793
C 46.62364324971596 9.937955995001563 270.1850236870349
C 43.375603193692335 9.801808384881774 268.20170703806076
C 41.206272754553865 8.973640893506973 271.2252990341186
C 42.64398158037777 11.932198133503999 273.1337653472966
C 42.43782487164761 14.11396667256009 270.02984067678176
C 38.78777042448769 13.181170720841257 269.51644559318885
C 37.97489544500581 13.83863853982319 273.1785518764797
C 39.58108898134876 17.26261255989676 272.77970542250324
C 37.283274983046375 18.109558172775404 269.87193301678116
C 34.19099529273121 16.82292053736117 271.6972895869484
C 35.25187552336439 18.89342408801322 274.71881037983053
C 34.143992399017264 22.09485499388152 272.9925754742148
C 30.492890479109608 21.02224829826439 272.92598698680484
C 29.877282073124107 23.29687423524192 275.9278263757238
C 31.715878797000222 26.654814216770678 275.8116011346408
C 34.768988704419634 27.08983260482638 278.0337998655375
C 33.20718537183443 30.051044851170765 279.8549093477308
C 30.178312599449058 28.011777628424674 280.94142251001267
C 32.29300307994716 25.13524534845007 282.2608568128272
C 34.759373811557545 27.53255727360824 283.8827687786143
C 31.965077462679943 29.470582789342274 285.5941910908651
C 30.612515146003506 26.172289593500967 286.9610946429961
C 33.889911575541916 24.893979026128793 288.39001833889535
C 34.562169798202426 28.350984770942535 289.87190055725966
C 31.118203526801828 28.23339088396069 291.47372585600675
C 31.630570407268667 24.61323309102577 292.5721179181344
C 35.07581229352444 25.407091875105554 293.9992011518475
C 33.815620303906755 28.363125462377806 296.04623933762184
C 30.993244222435273 26.411053571089205 297.6893671794956
C 33.495904079033565 23.74197881603553 298.72444717192917
C 35.80593983108197 26.335696178768796 300.302475542292
C 32.775240411373076 27.745624973735048 302.1184284724411
C 31.41040235410612 24.422255826893956 303.4076880668485
C 34.8556415345754 23.419084607730174 304.6655505865952
C 35.17467318606162 26.79228191835329 306.4003431983686
C 31.797202585348355 26.37017633466273 308.11691977799705
C 32.62948611733727 22.81696363612628 309.1990613724641
C 35.953200860038166 23.736763708065187 310.80193051024725
C 35.492773594668186 27.254608513358335 312.16663398787927
C 31.73842010765067 27.02015146140347 312.71811719275064
C 31.864427002315086 25.02609672614862 315.95645407841994
C 34.39305546615691 27.421096382788416 317.5034720107091
C 32.12210750432486 30.333677840887862 316.59171415342547
C 29.219376031957093 28.56391417568004 318.29605960800063
C 31.39557194211912 28.264633531790125 321.40247128084667
C 32.0708475487644 32.00587873454661 321.31238824012917
C 28.32892979535861 32.604766055689666 320.9651952475911
C 27.772170243245004 30.529892109121697 324.10277638160426
C 30.343946812016693 32.73210816960549 325.85065586134766
C 28.908225788713434 36.177863908447605 325.10538381260557
C 25.17087349745232 35.741525218536594 325.6767050882728
C 25.173089786867273 33.328098614439476 328.607521020206
C 27.784233785538696 31.478064221206758 330.633879632024
C 29.84040368271749 28.47734415821137 329.53765802641277
C 29.383913400089465 24.839997356575584 330.51358756021114
C 31.974719537627074 22.386781160680062 331.76899409893696
C 31.238853041693627 20.398094198611204 328.60480968058056
C 31.662807225912708 23.2948608655983 326.17117154530774
C 35.06678720977627 24.120452072453062 327.6877656657328
C 36.1203604664089 20.53467318683251 326.8819744008427
C 34.95435726109085 20.247955597339452 323.2688237295904
C 36.63294850821081 23.624406694499605 322.7164128452142
C 40.03295848732166 21.911143415485384 322.8541870995524
C 39.00574585660262 19.79511735209332 319.85597058292757
C 36.967458214307186 22.447270692181803 318.05167462025327
C 39.997374320733734 24.74429619685584 318.04541715518656
C 41.96976490630293 21.962770674721778 316.34537849265365
C 39.29084991418948 21.898722402210748 313.65749901232505
C 40.24515959765751 25.519171703684272 312.98900064572683
C 43.78227270448859 24.399225028205045 312.10756725640806
C 42.89937926885098 21.639764560780886 309.65283421559576
C 40.85740579567993 24.154114019083938 307.6761567991622
C 44.19609170863603 25.76658768648709 306.8207176333273
C 45.57948738533553 22.331669905370152 305.8793748802638
C 42.86859386787565 21.122598281416476 303.50650898401807
C 42.542767940644566 24.43821671416485 301.6590143800798
C 45.932434834309824 23.94702830607217 299.93831090001885
C 44.68188744081027 20.420885206509848 299.2134867452571
C 41.48701534315904 21.837384385964587 297.69733597005563
C 43.440857323981156 24.252973188925075 295.50253895572166
C 45.531254027852285 21.376559245435637 294.1496797590588
C 42.58775062723272 19.154863483948294 293.2174339015408
C 40.47152695139995 21.772207528147536 291.41694384722354
C 42.86664762280066 24.400519896591653 290.0142689790412
C 44.21995894506094 22.594019365102326 286.94918343108486
C 46.44623033200519 25.60003803167195 286.1537821197161
C 48.12087327774808 25.50737972573626 289.5764493661574
C 49.152065732915176 21.884284232936217 289.0239162275013
C 50.94191305413574 22.84971674858582 285.80882440231767
C 52.64507395513065 25.846902487280175 287.4318246836759
C 53.789083268064864 23.412967079279955 290.13059551432764
C 55.21330373395035 20.97157431817266 287.577579651694
C 56.88421899190217 23.95557337111382 285.87938854487595
C 59.25295857766462 23.976435234933152 288.86543793675673
C 59.42461146523377 20.165392823977893 288.6091741885113
439
Mode 10 - Frame 24
C 49.196558882193074 36.05315141722205 337.4234572483233
C 50.60663420657171 33.85871235320134 338.76334903418564
C 50.42716697585415 30.621845711111703 336.81331715048015
C 50.22303067733626 33.00070092917408 333.8481065942226
C 47.48940893319578 33.93663154782442 331.39202369802615
C 49.00163470327573 32.1939957905257 328.37256499276043
C 47.88588566101558 31.38074462688196 324.8424684368879
C 46.960581847254694 27.709779762008413 324.3671719739294
C 46.66019554552182 27.20167795701012 328.1492825480148
C 43.31527001316942 25.413850918855125 328.1372219203211
C 41.53899352498075 23.34855049614519 330.7986292489786
C 43.104572337345225 20.094433200816507 329.4707548775815
C 40.90838545006014 17.44657514230281 331.07055138681613
C 43.07995990244924 14.335049440842125 330.64698063225893
C 41.610379023410694 10.872693663313873 330.0479394380007
C 45.0728468183612 9.367899112202199 329.45735647535145
C 48.657172767448095 10.434527209187252 330.1924162573142
C 51.48614191272113 10.847102614528062 329.23743626990444
C 51.06963674654042 9.154890669432067 325.85551850442874
C 48.37624136198683 11.722932520942116 325.0957332366339
C 50.64913959258433 14.541565513800283 326.27398802464853
C 53.58255222887092 13.142106544393362 324.30941564747434
C 51.76946616548062 11.803467340839445 321.2363927688968
C 49.30766056336991 14.693764579856607 320.8865130299494
C 52.19725945614461 17.138494694748587 321.25016402039137
C 54.284284818037776 15.658159530000646 318.42797424984997
C 51.14031680425185 15.034959063758647 316.372416300639
C 49.81702793809016 18.58596936519387 316.7402145686966
C 53.23554721493929 20.147035673427457 316.1472181851677
C 53.79604676868554 18.055003402182937 313.0129424541027
C 50.32647752185857 18.94650628013913 311.7241131933225
C 51.05055292745065 22.634706714187505 312.2709058231872
C 54.443999037303605 22.684827094133027 310.5569281618349
C 52.99061590745945 20.729435277162807 307.6318011695553
C 50.383709343752514 23.47252571601024 307.17788296682454
C 52.93807470898189 26.292016184329274 307.2707689695979
C 55.00056922072047 24.59333606229671 304.56581968781404
C 52.09414593777214 23.57248655458989 302.33923222458276
C 50.571739522849334 27.059653896363255 302.50121198636634
C 54.057243409211544 28.46047301823368 301.9318244330653
C 54.144159328844296 26.188078715151757 298.87703561591724
C 50.93058961721802 27.73978328411701 297.5333081343305
C 52.35034805917533 31.222779815069806 298.1175271283692
C 55.438185503098744 30.190914005372917 296.13707460246025
C 53.928372446497896 28.899789559561306 292.88355998733067
C 51.719259376632884 31.99387022228191 292.6144182485793
C 54.42856407979629 34.62058799263044 293.1133360943065
C 56.80305030896643 32.44426741271183 291.07502871225904
C 54.737606692577245 32.30403362076253 287.87204230451675
C 53.4832416142238 35.365254223799276 286.00423349112964
C 50.60856362417619 33.52525332060946 284.3051803131234
C 48.9107579127962 33.41531819168935 287.7389793940295
C 49.879738561780194 36.64779849406593 289.5343106076142
C 48.15655932213088 38.51639135993634 286.6842824304883
C 44.90339189325141 36.56791919622034 287.16275077173947
C 42.347809401967936 38.12514843122609 289.5561421361671
C 41.25729964759589 34.620614995487394 290.6119122902625
C 44.68823740049229 33.88075783383015 292.1084929275005
C 44.644921272151684 37.10637228996672 294.09891370992443
C 41.84138504397907 35.21930164096328 295.8779307461268
C 43.72362763950788 31.95122859892909 296.46111508558056
C 46.93033588836875 33.73169736374277 297.44762969700486
C 44.94267773376162 35.849644475568546 299.89565898796525
C 43.42558807301171 32.71819887799495 301.4474091385385
C 46.75323528913975 30.88567687419753 301.5487077899194
C 48.54875634172247 33.77084327367994 303.268357382132
C 45.620483828230235 33.94436441717301 305.6903733962125
C 45.902389399674945 30.201330336296397 306.3280091172318
C 49.65813076362896 30.680632845359536 306.7358709852151
C 49.353471853560286 33.61365329351908 309.15222966603926
C 47.32472159203617 31.3805209953152 311.4574682513932
C 49.32101465156445 28.17918872267478 311.01958696104015
C 52.50071024735409 30.13536115313849 311.78890274122824
C 50.99110677400861 31.538464031676323 314.9881036297354
C 49.87435296354848 28.029071614011613 315.9114976850144
C 53.32519797980542 26.457167896082574 315.6383762410293
C 54.95275174493777 29.483325352283842 317.2647538659567
C 52.627308871877226 29.560511607817407 320.2767015953905
C 52.69856037336388 25.758402112646674 320.53570878325013
C 56.50072517823565 25.53063731738606 320.68408457098144
C 56.69048193599502 28.695390396021125 322.80071428104196
C 54.47902238470652 27.241507829041495 325.5645085326908
C 54.36646042569987 23.426746481157796 325.32492731476697
C 58.16279587278164 23.20612520709848 324.93357597957635
C 59.66549257520992 26.28666931374975 326.60699346245195
C 56.756105805603674 27.004576191146523 328.9892692473319
C 57.37233094200257 30.73964199199437 328.598739134769
C 54.86581990347506 33.28340706395822 329.8889935652401
C 52.7012564213137 35.66891548789046 327.8798340499683
C 52.19537094803535 39.28109338740389 328.91342559606403
C 49.034769721543014 41.16431937964317 327.91992510921085
C 50.305091028056175 42.43906137433434 324.5647537240703
C 52.16450986619073 39.27137164079432 323.54648948034287
C 48.97862067587327 37.30586293143702 324.24266232331644
C 46.62354258448309 39.555754707262786 322.26195932924946
C 49.065388279223086 39.699167379487974 319.3460821523132
C 48.951215689779154 35.90379613609111 319.06490082000124
C 45.16442142619898 35.83995954684704 319.4123006688358
C 44.770884364135576 38.81236958583841 317.07716438961666
C 46.860069268254094 37.056033134766196 314.4506523884471
C 44.51734913847054 34.068545186574745 314.54533728400116
C 41.559117784991706 36.458108828731845 314.58462382909966
C 43.02276346577608 38.275265221006705 311.57234453206013
C 43.571397877914066 34.9841005976601 309.73523310176824
C 39.87070363480075 34.11930974230294 309.9035343518602
C 38.77135356529809 37.696205465849616 309.2338299911852
C 40.74395557061428 37.89075230418641 305.99086032079134
C 39.444802550024384 34.42703097702041 305.080832658745
C 35.84170501227208 35.62151109253241 305.3769359484397
C 36.833864572010334 38.91584336246149 303.76561733020634
C 38.27422412970694 36.99060150601259 300.82066010584
C 35.10424005407647 34.924099169654056 300.3613262676171
C 33.22750251253649 38.2323505586312 300.3929028296741
C 35.31121075708457 39.71198583213003 297.57639441460003
C 34.891190164790125 36.48446188907417 295.61021923075026
C 31.11070843387858 36.810034790480294 295.86158779320914
C 31.396747810203138 40.320758047172816 294.40533732413047
C 33.49745437466568 39.051713927390736 291.50124312866427
C 30.876331281212483 36.40418688146045 290.7462915015681
C 28.09571849473527 38.98679884348429 291.02058588844835
C 29.86842078572546 41.06435830324628 288.3672959410193
C 30.347511340388134 37.974238965481824 286.185913202973
C 26.62151590824519 37.21603356554177 286.44958695644203
C 25.25815620137102 40.73684306706709 285.9482432750305
C 27.91277780313168 42.00742392581231 283.48673936031025
C 29.07160502960223 38.912125109907215 281.57954371492104
C 30.06087763470423 40.920921674817656 278.50283209918103
C 32.31195638497469 43.508438572867824 280.17952265869775
C 33.38168154395328 41.39772787123861 283.1805043364358
C 36.9655961874313 41.0041520907697 281.94986329589904
C 37.49588890699897 44.77365200804498 281.7435198422502
C 35.76989561828209 45.543485656937406 285.06885755504896
C 37.57547983458444 43.10433742759393 287.3847291984699
C 41.24175047040306 43.70655951235582 286.55999910302876
C 44.56581216623119 43.048780878775695 288.2568944022487
C 44.86902945597194 46.60918499963486 289.6564626416398
C 41.23027547318047 46.51829650130082 290.78161196491106
C 41.662263451866956 43.18026168175365 292.55400762948165
C 44.83884123389601 44.2516442772149 294.36928826810407
C 43.15145197548905 47.37152476877129 295.7528426974313
C 40.121505822620605 45.40815353300549 296.9484695611607
C 42.24645220823788 42.8070352363511 298.7355022847159
C 44.69030204731277 45.323125790792936 300.2171129982487
C 41.76535944941994 47.29237723544012 301.64014461410517
C 40.1100148890603 44.13650671648684 302.92452499846917
C 43.22242858483954 43.01211665577604 304.8028496878103
C 43.70975955963277 46.38971248493051 306.47412784448335
C 40.10035707440911 46.1824242390531 307.6396653931992
C 40.76507818324036 42.60787697489098 308.76172715446876
C 44.00401774911661 43.53776214556288 310.54623235760033
C 42.398569333085604 46.536377802921805 312.23668119635744
C 39.91549499928362 44.32203204782129 314.07492373131913
C 42.669078986274585 42.13181574105709 315.51307088926177
C 44.642284764721985 45.16228428157957 316.6668916169782
C 41.55296567939319 46.85868184215086 318.19179641479116
C 41.511976658693676 44.38843297390109 321.1123248189117
C 45.29413545817603 44.55033439472776 321.3263280993188
C 45.07389428055177 48.325778054136876 321.2739798856114
C 42.034690401220146 49.36118353461379 323.3348056972613
C 39.18197808910828 46.92245273186779 324.0197955273643
C 40.22028520043678 44.92549182863636 327.0960814728886
C 39.383251923149416 43.54742025034742 330.4956241296913
C 42.39055675639086 45.30757971061918 332.0160794943519
C 42.10004030759624 48.64500159020358 330.22720435182697
C 38.291587557710834 48.89745573576753 330.3788612346237
C 37.6269327610174 46.964804588890566 333.6203125675319
C 34.878721081711674 45.28541608746309 331.59511237207425
C 33.37068636262588 41.81744956902539 331.8736021799339
C 35.95174568760971 39.24863181326999 330.84641097178655
C 35.434196378585696 36.332305415985765 328.4709349821051
C 35.19968505880543 32.893863401827495 330.0756543529195
C 37.278244850302265 31.449124008596343 327.2081695692495
C 40.00603741821239 33.94552105840288 326.34276232325396
C 42.02154837747298 35.9701739783328 328.8722026294258
C 42.170870178186654 39.76440021057132 328.5250172506978
C 39.28232121389795 39.73375747842048 326.0026872566031
C 36.314605620927985 42.083709521577234 326.3157226107045
C 32.88788764426014 40.484204472297954 326.01615831511515
C 31.414119359137203 43.40137037356394 324.0748236042834
C 34.272987750450426 43.24603822345995 321.5778680232997
C 33.28975155018771 39.669862081037834 320.72088078122965
C 29.693964291044004 40.7071259831321 320.04926314404463
C 31.039987147993422 43.201240117011174 317.5113774159414
C 33.43447753912855 40.61043920923373 316.08479549606653
C 30.889776145361484 37.775343850398514 316.028783801022
C 28.176911985360906 39.965367602295395 314.53430544232845
C 30.451784159934576 41.2359530347841 311.76836464798197
C 31.55594251017116 37.791311407452255 310.59390359232515
C 28.09859089097569 36.27632582605983 311.1315452203645
C 26.475077115417427 38.874903680622616 308.8733951639151
C 29.197050756891105 38.453166603721925 306.260273222804
C 28.923360042962006 34.656939106700634 306.34501226582705
C 25.123621743880758 34.769437514274976 306.16222360090467
C 25.452223501133183 36.857670082792154 303.00696658861193
C 28.232066107532194 34.685747394913896 301.55734258741626
C 26.118403706981457 31.564955733205423 302.0598844267975
C 23.189479579450357 33.17539056204767 300.2503045891223
C 25.450343779747847 34.57435667731836 297.53281227209516
C 27.299369819938725 31.319916341020903 296.8515126458345
C 23.96278948619784 29.527160894588587 296.42331866031526
C 22.753647906868835 32.191771704491565 293.98808413965423
C 26.097347039762763 32.08318490888122 292.1487125024441
C 25.922136916427064 28.302075909413983 291.7718305502409
C 22.25088254214523 28.46569727315205 290.74863703152954
C 22.98877399889305 31.09842593580271 288.1049948499855
C 25.908675933337356 28.973209991133242 286.8980377700038
C 23.49658232189143 26.125694348514337 286.1177793681961
C 20.897178712045385 28.339581653000614 284.4157472401942
C 22.848382767139682 28.493080235118228 281.1432120765623
C 24.47725921094519 25.065054691009507 281.2530382981022
C 25.237181734796486 22.223049122959615 283.5727658695689
C 28.65798304961199 20.699662131730772 282.99593894517375
C 27.877746263653588 16.9718169563701 283.2357415434125
C 28.994213160748732 14.411229940229628 280.667447001869
C 27.547000065386296 10.908749326526326 280.39078975542765
C 29.459448328490563 8.022948326898371 278.83220378248177
C 27.713013073590112 4.7105313283015695 278.10514209757713
C 29.877007346159317 1.9529787650756174 276.6485388988014
C 29.334841645896343 -1.6045504954036265 275.50492581808214
C 32.46080706859461 -3.7692000782229553 275.5450721166045
C 33.2228967463249 -7.48340677209605 275.91486295885943
C 37.02651656561092 -7.596640514833272 275.69643533351524
C 37.50047063854488 -4.103050274707821 277.1487729329454
C 38.73336483528155 -2.1602527325363137 274.11329157788606
C 35.73881172477102 0.170568434616748 274.1532508540258
C 35.910492256893946 0.34087443102566617 277.96231511165337
C 39.53557466989655 1.4692417693278814 277.75736313244124
C 38.53206011907763 3.9502490809076583 275.0504756551402
C 35.75870976866974 5.391988433824088 277.2184947467719
C 37.9914703134628 5.592946465464047 280.3010054203965
C 40.56893876621213 7.49893774462335 278.24817763301394
C 37.936933081611336 9.964841710225196 277.0216770683524
C 36.65726429128899 10.184177735223624 280.5994126285846
C 39.88500166963399 11.612470844968481 282.02895406861404
C 40.39072079942188 14.186536345674162 279.25953972627457
C 36.90938230994862 15.581209135495941 279.9156993725544
C 37.44019403847842 15.364800425644178 283.68170534263527
C 40.5003854146763 17.616971765589128 283.3635364771798
C 38.639648457430525 20.00801149416184 281.0500778312624
C 35.96136162588336 20.836797554413728 283.6313465268224
C 33.190043666222984 18.284814078434863 283.067078421774
C 31.52253530851878 16.31386480885001 285.84648235297806
C 32.01447158834779 12.976366288222522 284.0738321205444
C 29.710890662549403 9.999772166892898 284.73648408013867
C 30.85205646419057 6.7553996265442935 283.08669756153586
C 28.515050508400915 3.7461375863122672 283.0510471427296
C 28.451543443914307 0.31158255591383444 281.44553842383203
C 25.508079564014242 -0.19519376132866975 279.0873214741561
C 24.51246272403977 -3.3832746648195555 280.9336050777638
C 23.705438682173728 -1.3790488957986766 284.09121746538585
C 21.494963608790375 1.441291528897655 282.745440735671
C 17.806544921777526 1.8907454362458898 281.9884523758302
C 17.006966548374752 3.7527344488965517 278.77863618723234
C 14.07499470920958 5.776136035057895 280.1217123518589
C 15.237164102496667 9.320988832120198 280.81203409903776
C 18.86957393702832 8.197248045575337 280.81385213877627
C 20.29146223006489 11.362664217214268 279.2424358774103
C 18.412252341286244 13.747843366038767 281.54299654953917
C 20.607022036468315 16.058718074052113 283.5936621846449
C 23.534083818455077 15.715816104371344 281.17544721033937
C 24.305314899593352 18.171676622783636 278.3850309586102
C 26.974693433591455 15.951192121885075 276.8274478272139
C 26.396383350235187 12.251479470382371 276.1461368130804
C 28.96350871237626 9.92574068347103 274.57415218295756
C 27.776541155112735 6.502883269786114 273.44890903882504
C 30.438249820257898 3.8920128189363794 272.71788753554273
C 29.85719462191306 0.4430344239400949 271.2783639235102
C 31.89769290635628 -2.257928026367517 269.55842161216475
C 30.740273678136035 -4.110979859810671 266.44317254045114
C 30.16141732981729 -7.87945052431779 266.4186774943885
C 28.883100385297716 -8.713338637349356 262.9476491578891
C 29.71056901168184 -12.417032814312236 262.63316492620135
C 28.22181877259096 -12.484474175870607 259.1395777574895
C 25.910778363138768 -9.465889668296345 259.5451549305201
C 26.223657457366677 -6.255164604313382 261.5816798287664
C 25.521274079282563 -6.395458535583731 265.3093310565765
C 26.022083115220084 -4.1376093581905335 268.3066150781278
C 27.804735303765572 -5.356304285447545 271.4096866898418
C 25.18159026181181 -7.320939027671998 273.28236937987896
C 25.05026545051465 -5.152712798218297 276.4046394928872
C 24.213088435419746 -2.1200633218495066 274.24942709343463
C 21.272823642941862 -3.564403591567584 272.29776008995003
C 18.614130876641926 -2.972055638805182 275.01871481866544
C 19.621549984619975 0.6954837374000055 275.0975869256097
C 19.741332440975622 0.9058711429885291 271.3107556005709
C 16.263930425927946 -0.5960408090238842 270.96883370315396
C 14.776830612422453 1.9700197558848014 273.37930456591874
C 17.004434598828134 4.9031367094256835 272.45580639228825
C 14.030767726853455 7.200926227657472 271.7946067313561
C 13.252526513600516 7.103714468319065 275.5417543972292
C 16.627401728600827 8.53392897388107 276.58970425680786
C 15.904136880338347 12.205172277337978 275.891624508095
C 18.315634659823704 12.557305944182048 272.9549503314521
C 16.352347169250578 15.170290104782499 270.98934442113745
C 18.098153565724203 18.52460256412911 271.18178933827846
C 20.913468406874735 17.11394594077579 273.3008636216383
C 24.610151653004465 17.128605669759175 272.3980215856557
C 25.912955548216754 13.622607578917433 271.65718815436406
C 28.806605618077175 11.870791994920067 269.9486475795528
C 29.70134111649284 8.249838463851718 269.31953792249914
C 32.81673093026044 6.106030033778597 269.518938821335
C 33.53663489264262 2.4248579091462656 269.0864782563005
C 36.17804422404082 -0.2475650448858995 268.5687304121551
C 36.22534579244162 -2.396912520605149 265.4499712393169
C 38.5316293617991 -3.9544675611521365 262.877709956172
C 38.83105359458447 -3.0429498159098585 259.20989825535696
C 39.0547716130471 -6.642038156376583 257.9520632465463
C 35.28540455091281 -6.8989205060993495 258.45970754888776
C 32.93410855068283 -5.62562499854806 255.79265198053812
C 31.371443722494917 -2.9050110983854345 257.9612615354996
C 34.17057202291223 -1.3103053476013593 259.97032375044023
C 32.62045242854229 -0.03082053956840092 263.2083188397974
C 29.133967708192714 -0.5069099195102789 261.7920101648455
C 27.86330879803443 -0.11058168848926468 265.35636765483184
C 28.758104496974987 3.584053947754762 265.5900364472784
C 27.15981933363871 4.101061751623647 262.17032824166745
C 23.913231407482556 2.5554971041262844 263.40752530768395
C 23.960522437018664 4.553206548147383 266.64836772246866
C 24.69989565710623 7.857738135895075 264.9044015013938
C 21.961366043116044 7.318938046552243 262.3056502244398
C 19.41018624260128 6.664956349284161 265.04623014202
C 20.671889600856364 9.670181488645774 267.0065800307485
C 20.1804062059349 11.788850368352554 263.8809992540747
C 16.67977464014482 10.385918770312694 263.4135756384128
C 15.921806761267176 11.333536566363888 267.03425498335343
C 16.92554030945275 14.971028437855528 266.5827719015887
C 20.038379848839696 14.796877059872603 268.73491052295606
C 22.668969435924556 17.48550014969519 268.1544491437034
C 25.667849595534193 15.42531486747102 267.0389505683005
C 28.67983230674221 17.546167655534994 267.9374751248642
C 31.160485529681598 15.824255300633181 265.61269038533254
C 31.856355866836466 12.669289463860396 263.64933882833446
C 32.23699443101868 9.38985623530356 265.4580969042375
C 35.49836627103017 7.932471273606384 266.71715492281106
C 36.24052932271026 4.639903842338382 264.93828713905543
C 39.18546968319558 2.735347958773019 266.41825740398684
C 40.85381094175802 0.07020503811311415 264.2800580992343
C 42.621409525726314 -2.7556078723311814 266.0634754470532
C 44.050711548170376 -2.162454071552738 269.5169944162756
C 42.91329801227196 1.1549830133538639 271.04814025421456
C 46.08468539123901 1.442557049837825 273.12745740523434
C 48.058720898898954 1.7005029540958585 269.8612984667811
C 45.79770247802171 4.580114867980851 268.70998109685746
C 45.6881137224275 6.664173393170913 271.9018028520184
C 46.622784745444605 9.942328398084394 270.18344927905065
C 43.374702735262886 9.805094619271841 268.20032128835027
C 41.20560526189305 8.977196676865026 271.22414964013086
C 42.64284606064181 11.936385134778234 273.13189629640885
C 42.436215448051264 14.117508217810261 270.0275312856487
C 38.786338199687634 13.184004071425889 269.5145031074929
C 37.97345775620919 13.842019606854388 273.1764736312983
C 39.57916208130141 17.26616958156954 272.7770523042429
C 37.281121429839644 18.11233088505278 269.86922624676026
C 34.18911619212455 16.8256337077688 271.6948731666899
C 35.249870542858176 18.89668341322197 274.71610896963284
C 34.1415889672974 22.09783325764492 272.98966580652706
C 30.49057891137584 21.024947143947777 272.92323415323636
C 29.87525932444256 23.299982772461135 275.9251242664288
C 31.71404849261455 26.657925377085085 275.8092148030517
C 34.76715359655234 27.09298666629305 278.0313174388575
C 33.20595353583684 30.05392740766252 279.852946593736
C 30.176987793397142 28.015065207019504 280.9393499187667
C 32.29138586779299 25.138512485435417 282.25850301167304
C 34.75822114943689 27.53519891078794 283.8808995777615
C 31.964199981218474 29.472961082570762 285.59260936653016
C 30.61122519249377 26.174855519988764 286.95908008591056
C 33.88847318176347 24.89603406831863 288.3880945262622
C 34.56111346204142 28.351903237294604 289.8706374642272
C 31.117058306942116 28.234597534814846 291.47225187426466
C 31.62875358099408 24.614402933389822 292.5702334582092
C 35.07389748606272 25.406913040528448 293.99783751179206
C 33.81423834489498 28.362682931084535 296.0452673718516
C 30.99152906160018 26.41100752497701 297.68808369283227
C 33.49367932651492 23.741542693891105 298.7232038940112
C 35.804194268811116 26.334354608459993 300.30171177723685
C 32.77370023629382 27.744592449017624 302.11771046936286
C 31.40863657735968 24.421501664456045 303.4068713086519
C 34.85377789489767 23.417769766010398 304.664870951341
C 35.173157801450316 26.790565110025693 306.3999785605648
C 31.795838882642016 26.368507845647592 308.11666105529235
C 32.62815372772101 22.81521703346076 309.198577937409
C 35.951793527937625 23.73450138563291 310.8018024328873
C 35.49155975530869 27.252352973679454 312.16651886996965
C 31.737265422168594 27.017609963498465 312.71828689005923
C 31.86384017788401 25.023339096444243 315.9567838714023
C 34.39231006044464 27.418513587284657 317.50362620077027
C 32.121097595503755 30.33102592807648 316.591857760688
C 29.218835139973777 28.56094600031445 318.29671257482295
C 31.395459535906966 28.26202726029746 321.4029751411946
C 32.07032975403255 32.00339286091247 321.31250238656816
C 28.328320996458864 32.60189176347548 320.96558005752127
C 27.772162802798277 30.52705601256619 324.1034417267792
C 30.34381802219119 32.72974338295393 325.8508894258508
C 28.907560348685216 36.175247568389544 325.10545444775005
C 25.17031086383976 35.738442928069006 325.67715502531576
C 25.173085862750327 33.32520978781213 328.6081538211008
C 27.78466061597415 31.475745060109638 330.63445305506303
C 29.841216431017767 28.475274991315057 329.5383285442775
C 29.38540314807121 24.837987051373428 330.51478561536936
C 31.976698511112538 22.385392171455415 331.7703055007977
C 31.241000999604886 20.396167070544458 328.6064787807967
C 31.664083090222796 23.292725411311206 326.172344077515
C 35.06806394888757 24.119033761164545 327.68847518404124
C 36.12257365702227 20.53311409738899 326.8833303684032
C 34.95582761021695 20.246121936410425 323.2702736918047
C 36.63369374022414 23.62281554725127 322.71700666907674
C 40.034009216789684 21.91008823237571 322.85479078958366
C 39.00641253586659 19.793538850496557 319.85688966936397
C 36.96708854975495 22.444986212110848 318.0522132984919
C 39.99687720833762 24.742403945295038 318.04539892350317
C 41.96903219945054 21.960639162208775 316.34549306510405
C 39.28958903450215 21.896461885042516 313.6577394318831
C 40.24384147851807 25.516935254684192 312.98895691270695
C 43.78094964203789 24.396986248667528 312.10762987417814
C 42.89778932023509 21.637239972289645 309.6531473947595
C 40.855727278117264 24.151617862386498 307.6761499462864
C 44.1945143277814 25.763852304258563 306.8207736789044
C 45.57758677792074 22.32862499619218 305.87962072498857
C 42.86647008267024 21.11990614093723 303.50661785336973
C 42.540811366817984 24.43554125000546 301.65901375160126
C 45.930449114029955 23.943749209071058 299.93842842659177
C 44.679138957879445 20.417962002034535 299.2134217673552
C 41.48447979427448 21.835138641728296 297.69719017215647
C 43.43876572927826 24.250439482382824 295.50255910556893
C 45.52840211371157 21.373562877426338 294.1496500503261
C 42.58409032294255 19.153121258413535 293.2168467755805
C 40.46901274757884 21.771455476596607 291.4163344341899
C 42.865045945829465 24.398967506667223 290.01425722336637
C 44.21821254741748 22.592838489194055 286.94930652866185
C 46.44591433180159 25.597239262399317 286.1540101661227
C 48.119829900953796 25.503604517225675 289.57686677468536
C 49.149833915346214 21.88025096912802 289.02435693674676
C 50.94051830053419 22.84500900979031 285.8095750583541
C 52.64441515095858 25.841662173230063 287.4326190322141
C 53.78715661771544 23.407505418256843 290.13174951705435
C 55.21088669539996 20.965386841119564 287.5791276908807
C 56.88316050574043 23.948774068272286 285.88116346034025
C 59.25134331047374 23.968898987730512 288.86760403674566
C 59.42156911017018 20.15768361114338 288.611832568348
439
Mode 10 - Frame 25
C 49.19785001925168 36.05751882259388 337.42109178505126
C 50.6097067491572 33.864370712008906 338.76117206002067
C 50.431980025188764 30.626866297769393 336.81194768996596
C 50.225173702632134 33.004661576318576 333.84621951689616
C 47.490534662739414 33.93872085109094 331.39050166021093
C 49.003187282406664 32.19614193494674 328.37126278041353
C 47.88723698876181 31.38157212205122 324.8416218923256
C 46.963033222110944 27.71006767383519 324.36688837724773
C 46.66366493548774 27.20295844794624 328.14907847223833
C 43.31828571019271 25.414937131785724 328.1362186020608
C 41.541944534981575 23.351362302020938 330.7994670597404
C 43.10854448149971 20.097791935732157 329.4731013753122
C 40.91469888531656 17.449205930634093 331.07434659008925
C 43.095699119924504 14.343359871734789 330.6620921473252
C 41.63466384079527 10.876476146071774 330.0763762795229
C 45.1003978707009 9.378368751592534 329.48772298487336
C 48.68263831659504 10.454775462604653 330.21482019867057
C 51.50964326643756 10.86756764368668 329.2546528158391
C 51.09130571859443 9.167059796716284 325.87710864115286
C 48.39311770604343 11.728660602214584 325.1147113717172
C 50.66262756943596 14.552690828242666 326.2845391216462
C 53.595735092140885 13.152200009882465 324.3185874069565
C 51.77934866432083 11.807627686422185 321.25048395903195
C 49.31448584358604 14.69503732610366 320.89862651384516
C 52.202600679109786 17.142294966689537 321.255871403992
C 54.28765681941292 15.659665185947178 318.4334303792578
C 51.14154017777091 15.033621618704938 316.3822138507425
C 49.81729366123733 18.584452185114333 316.74672209594894
C 53.23505125507829 20.146138413946332 316.15041732998264
C 53.79318156315147 18.05142681789636 313.0173285422407
C 50.32321617596364 18.942258886022938 311.72946749320823
C 51.0476424677785 22.630709620871883 312.27350704633176
C 54.440601657273184 22.679567539969632 310.5585439107183
C 52.98600108388238 20.722690835134593 307.63476937747816
C 50.379890829340745 23.46613081612651 307.1796815704638
C 52.93467056337352 26.285309212135154 307.2714154743525
C 54.996673827286315 24.584901757721187 304.56708750702376
C 52.08993076078692 23.564307015957578 302.34073138112456
C 50.56854415923381 27.052085245223388 302.5018188823195
C 54.05453943664281 28.451758247830263 301.9325553860002
C 54.14083702463036 26.178594535180835 298.8782841296425
C 50.9280335052345 27.731487808784376 297.53399584098514
C 52.348975835207355 31.214037614880834 298.1180164414178
C 55.43691721978504 30.180639888585425 296.1383196305155
C 53.9270874491352 28.889705383106207 292.88476161857955
C 51.71932559354826 31.984851718047015 292.61500670324625
C 54.42976534515008 34.610253616662405 293.11402130114345
C 56.80367166001136 32.43244177978771 291.07627784321966
C 54.738714741047325 32.29285473949468 287.8730219992263
C 53.48590222230094 35.35459206109127 286.0049278714091
C 50.610659000292515 33.51602175069598 284.30561122688096
C 48.91229947613321 33.40742192688741 287.73916005035295
C 49.88226533226313 36.639233437849285 289.5344616511238
C 48.16035381593129 38.50839914637805 286.6840783652195
C 44.90612847233382 36.56166793045578 287.16205779846973
C 42.35059805985009 38.12012836828442 289.5548777301608
C 41.25834574103476 34.61653669546315 290.61084724809496
C 44.68893143124736 33.87487862300401 292.1078230073113
C 44.64644823001836 37.100259328453745 294.09820616883997
C 41.84161883935907 35.214536101006296 295.87677464687306
C 43.722677454113814 31.945843740422625 296.4603895401022
C 46.929948229585705 33.72484008233631 297.4472157696723
C 44.9423489186093 35.84359658575943 299.89488481380494
C 43.42401557612064 32.71272726974543 301.44656789566386
C 46.75115789158113 30.87917905271065 301.5483762875361
C 48.54725820743302 33.76415176090871 303.26778898765065
C 45.61856302354186 33.93878860155907 305.6895353489521
C 45.89976178153915 30.19575756775148 306.32774008107936
C 49.655526269366824 30.674496588369855 306.73552489202956
C 49.351105084477815 33.608588092353024 309.1511362482548
C 47.32215368057973 31.376093471553848 311.4569793514262
C 49.31824172452859 28.17452268540621 311.0198921106236
C 52.498232757194366 30.131126734392435 311.78765973880587
C 50.98913027360535 31.53600855492236 314.98657444546564
C 49.872980301095204 28.026651222144853 315.9117214094971
C 53.32428620899752 26.455454151945958 315.6380743814385
C 54.95223749866265 29.483206856508634 317.2619148479777
C 52.62808591959268 29.56171756453356 320.2749401347984
C 52.70119248214173 25.75988608000592 320.53591363407224
C 56.503431959306575 25.53388839584834 320.68237827669236
C 56.69258461560677 28.70027287703096 322.7975211742208
C 54.48304369847805 27.246826845730414 325.5630325542641
C 54.37330359962522 23.43249119568976 325.32547025535195
C 58.1700560904023 23.21398182894381 324.9318257499177
C 59.670991769703576 26.296086614698666 326.6035965808523
C 56.761728987011246 27.012303084857162 328.986920592665
C 57.37525178455883 30.74745240965112 328.59500736383444
C 54.86726651740859 33.289092717761974 329.88640133747475
C 52.70105468144724 35.67276754498053 327.8771666769825
C 52.19399667764301 39.28492953903169 328.9100794856961
C 49.0324657279797 41.16625777892573 327.9166237458723
C 50.302132458421745 42.440575806084794 324.56102064875
C 52.16249732652366 39.27339477456669 323.5429588442676
C 48.97740289206884 37.30685866335599 324.240278524904
C 46.621258898563504 39.55515078913237 322.25945956942405
C 49.06285016826622 39.69843715856812 319.34321378323506
C 48.949855300562135 35.90300969992795 319.0627639193231
C 45.16304264270532 35.83808561658571 319.41093268189604
C 44.7683913067163 38.80974373919835 317.07527214497725
C 46.857738493117175 37.05290092719192 314.44898473430305
C 44.5152615619845 34.06509897697497 314.54450246542535
C 41.55687207912139 36.45434400456814 314.5834057633747
C 43.020638845527515 38.2712181932704 311.57088321643823
C 43.56930594378046 34.979621253390334 309.73422878380825
C 39.86858436386036 34.11499051304291 309.9024136930297
C 38.76971262803611 37.69207437364011 309.2322358651153
C 40.74306547288559 37.88630409979218 305.9894422970477
C 39.44330028438915 34.42273667132874 305.0795065151847
C 35.840479688203004 35.61806793117877 305.3752429420466
C 36.833608459212904 38.9123704938494 303.7641316245199
C 38.27420409094162 36.98688204005261 300.81917057571235
C 35.103503335539486 34.92176572112259 300.35950895695356
C 33.22781521240755 38.2307098901863 300.3914810053387
C 35.31298005397914 39.70993073777495 297.57519686013785
C 34.89179901174505 36.48307948791613 295.60850089693486
C 31.111270943947723 36.81056812198387 295.8599259143317
C 31.399273753812306 40.3215843424741 294.4045025019668
C 33.49982773946135 39.05236535330411 291.5001485072268
C 30.877106325376438 36.40676297602722 290.7445667062355
C 28.097800024339097 38.99057192239841 291.01946062188597
C 29.872138258647947 41.06817076954265 288.3668224468063
C 30.3490749490251 37.97859854342616 286.18457985819464
C 26.622721480472983 37.2221102407302 286.4480145593801
C 25.26162910897953 40.74400965818544 285.9476850825231
C 27.91717861221949 42.01418095608051 283.4867626633237
C 29.07360729678083 38.91873004240446 281.5784222189674
C 30.06401782011271 40.92799183084995 278.5023106686739
C 32.317414111627464 43.51286971151675 280.1796547433555
C 33.385643924272266 41.40043441153621 283.17992280321056
C 36.96929797821301 41.00404908578716 281.948981448176
C 37.502514957690266 44.773146678946496 281.74320514370464
C 35.777236324959205 45.543531642808986 285.0689596976278
C 37.58115898218462 43.102072084136886 287.38385933999615
C 41.247941863282016 43.702128544901306 286.55901570619466
C 44.571551008057625 43.04254197955929 288.2561885874056
C 44.87689463863849 46.60255234117295 289.6561530572294
C 41.237939846180424 46.513889048876415 290.78057377393304
C 41.66733609657851 43.175410307427136 292.55293406332027
C 44.84404103485351 44.24514937012654 294.3689942739088
C 43.15784886990897 47.365845209598874 295.75205209835826
C 40.12628857668146 45.40393767695323 296.94663943905095
C 42.24936220874351 42.801846479818536 298.7343844929126
C 44.69376191527277 45.31694546102957 300.2168346744059
C 41.768814185229594 47.28760493680754 301.6383435445377
C 40.111712290925155 44.13225928335811 302.9222428848624
C 43.223016115372474 43.00718884078481 304.80187964974306
C 43.70978105668533 46.38517843365391 306.47295412325633
C 40.09952048643225 46.17836299398989 307.63674487830156
C 40.76337246006007 42.60377525207349 308.75960578070533
C 44.00178098715405 43.53384950329682 310.5448704781634
C 42.39494215061329 46.53267833758467 312.23429571056295
C 39.91187446277374 44.31809527440329 314.0723377471953
C 42.66549564424092 42.12843474899468 315.51118700420886
C 44.6379677686326 45.15975546874031 316.6644873181067
C 41.54814076975052 46.855670449599074 318.1889535926484
C 41.50804483745156 44.385980273929725 321.10988178875374
C 45.290100032145475 44.54914220646247 321.3235271478587
C 45.06862871945205 48.32463560661629 321.27058421787643
C 42.029174847352316 49.35946839228297 323.33133619618184
C 39.17750969796093 46.91990885839316 324.0171315985691
C 40.21668342141296 44.923838529663726 327.09366019956923
C 39.380457782372325 43.54604157198313 330.4935119670644
C 42.387288326373884 45.30752788043029 332.0133007699168
C 42.095387539674995 48.644554413014795 330.22387802224307
C 38.286885861797124 48.89571625674743 330.37592321013125
C 37.623273085543005 46.96339154796911 333.6177812257304
C 34.8754379598603 45.28269667624946 331.59322477816744
C 33.36865804294156 41.81428012931218 331.87247545679867
C 35.95042731987792 39.24616133566663 330.84530134399864
C 35.43346356494344 36.329417085571826 328.470136132136
C 35.20007084476442 32.89128281158266 330.07523822117554
C 37.27875940098677 31.446877746292184 327.2074391525496
C 40.00594466575948 33.943865146084434 326.34188950319253
C 42.02123112767871 35.969443167430015 328.8709328148985
C 42.169183052114754 39.76364917292217 328.5231381613081
C 39.28032554106693 39.731633393483435 326.0011952990071
C 36.31186926409535 42.0806956542909 326.3142274922042
C 32.885573107580136 40.48016287592161 326.01525009060833
C 31.41071122149228 43.39659868843115 324.0736770842607
C 34.26950197254103 43.241743269885845 321.5765387179005
C 33.28718096026274 39.66513584081628 320.72008677719833
C 29.69110645958865 40.70139267118571 320.0485243611028
C 31.036590830950587 43.19576482170483 317.5105390092891
C 33.43193144771109 40.605214334696576 316.08409852412876
C 30.887560984466504 37.76968046659554 316.02808787470303
C 28.17468467941873 39.95952328090114 314.5334734706211
C 30.450104724496775 41.231129255658026 311.7678850108854
C 31.5545171381214 37.786634401305456 310.59292873481684
C 28.097107549141597 36.27146871678317 311.13006596180287
C 26.474086743729504 38.871336012141846 308.8722869494616
C 29.196599183856158 38.45046949810181 306.25926531774246
C 28.922076154562276 34.654172933904626 306.34295480811437
C 25.12222505058359 34.767789071386595 306.15961080633997
C 25.4519352975587 36.85752076569547 303.0051814357702
C 28.23134494103437 34.685233537561366 301.55516618963765
C 26.116490065693792 31.564870283964154 302.0565867007516
C 23.188274410654177 33.17723319012211 300.24714811162767
C 25.450044822422935 34.576559962935654 297.53041506721183
C 27.29790624340343 31.321533146767894 296.8484269736155
C 23.960751946544047 29.530186347577132 296.41926685473055
C 22.75269590943077 32.19635187284589 293.98485796488313
C 26.096421941950858 32.08728109885612 292.1456983686474
C 25.91988950007245 28.30627125170723 291.76773297811224
C 22.24874727563541 28.471714608232386 290.74419913331803
C 22.987721320942345 31.105093379360998 288.10141903032525
C 25.906827360109844 28.979181485635653 286.8941004849826
C 23.493937455158505 26.132606015104663 286.1128817090765
C 20.895285186880574 28.34784450039939 284.411388895559
C 22.846292184015127 28.500762063768136 281.13890157930336
C 24.474017383574676 25.0719341404574 281.2479386748303
C 25.23358920632545 22.22983966322747 283.5674223823076
C 28.654318877985084 20.706397864721776 282.9904905767387
C 27.874282076354884 16.978807067962226 283.23102608009873
C 28.99133307859902 14.418004314167337 280.66338372165063
C 27.544854291475744 10.915209042683939 280.38812634268396
C 29.45833536075172 8.029390251029186 278.8308444578605
C 27.713011904719608 4.71629527900553 278.10548702106945
C 29.87807957339351 1.9587921188014068 276.650457671534
C 29.337090978929364 -1.5994050781062654 275.5088663585834
C 32.463774749102065 -3.7630131066431294 275.5501618680284
C 33.227108107052935 -7.476664878620417 275.9222065855176
C 37.03085132415976 -7.588894246090513 275.70345956486295
C 37.50382602626546 -4.0944627075386455 277.1536212124754
C 38.73601442653325 -2.152898762257182 274.11702060289423
C 35.740527290946034 0.17686550977242727 274.155910636
C 35.9122363857343 0.3491111020187695 277.9648797415429
C 39.53713261643198 1.4784290747340003 277.7590293989092
C 38.532591186027226 3.957826406558925 275.0508801632532
C 35.75864631038037 5.399499656147167 277.21827169894055
C 37.99151767114845 5.602338987108895 280.30064730776434
C 40.56840779892543 7.5081522319670455 278.24646301832746
C 37.93541914553816 9.972634271673545 277.0189343236197
C 36.65563133574859 10.192655509705554 280.59669352661894
C 39.883392194308605 11.621816483413564 282.0256501161021
C 40.38806355182802 14.195160871875956 279.2550211208316
C 36.90630829067055 15.589058253554809 279.9109876796107
C 37.43686863098012 15.372864899231242 283.6770825229272
C 40.4967746757977 17.624484478169133 283.35839231320983
C 38.63655064270383 20.015699468734617 281.0447958594438
C 35.95828945590557 20.84361058667124 283.62630875274726
C 33.18664229605465 18.291983261339933 283.0619752111649
C 31.519089982086385 16.321565898116855 285.84196887710954
C 32.01192602897179 12.984469576735213 284.07027085003574
C 29.708754670018585 10.008196795020975 284.7343844389225
C 30.851604380883085 6.763857562388321 283.08591993862825
C 28.51531421360425 3.7544401363826436 283.052026404869
C 28.45310418227122 0.3192194735670167 281.4483513090571
C 25.509681776482626 -0.18936498253418804 279.09051138421216
C 24.514924749345624 -3.376633989662237 280.93855777172513
C 23.70718760096924 -1.3709084869270853 284.0950425235732
C 21.49595033944894 1.4480603963771561 282.74772591288564
C 17.807479678984286 1.8962220231922264 281.99046829132504
C 17.00741657419775 3.756245064129681 278.77965219167106
C 14.074726961235225 5.779431931670637 280.12155925561166
C 15.235718918541266 9.325013145727906 280.8100640962858
C 18.868449739006603 8.202322067717246 280.8126136605674
C 20.289453949401054 11.367343402686574 279.2396252898341
C 18.409458163124796 13.753221790373159 281.5388841359108
C 20.603622600151514 16.065538212410534 283.58859618854996
C 23.53094707940409 15.722091036116607 281.1707580624635
C 24.301799872259654 18.177338176140758 278.37966377053226
C 26.97150219067833 15.956449958001889 276.8229374381905
C 26.39420330797512 12.256175173515173 276.1429953359388
C 28.961943310881736 9.930323625321822 274.5720822156736
C 27.776135144045355 6.50655939339495 273.4484701363776
C 30.43867451959088 3.8961243949574387 272.71879166067964
C 29.858786547399575 0.44624999829562917 271.28119241028605
C 31.900223758753828 -2.254894623222811 269.5627648602166
C 30.74346786149103 -4.109998183455043 266.44870034829336
C 30.16620799575445 -7.878694988267378 266.4268423658933
C 28.88845583031053 -8.715454128863511 262.9565318188969
C 29.71793891927614 -12.418996834542112 262.64513071900444
C 28.229255756813675 -12.489885608391358 259.1516854542899
C 25.916788448206447 -9.47197920890619 259.55479703493717
C 26.228069026208622 -6.2592626096588315 261.5886822005266
C 25.52545170380184 -6.397116272342672 265.31627520401014
C 26.025204929231528 -4.137197249290394 268.31210332000273
C 27.808156435564737 -5.3535948701170195 271.41588378514956
C 25.18556080339346 -7.318083454939012 273.289578321949
C 25.053460369476614 -5.148268125934267 276.4105725869251
C 24.215405110743873 -2.1170178223412783 274.2536804444199
C 21.275611027581224 -3.5632052166202457 272.3027883317392
C 18.616711978431656 -2.970083710247198 275.0233894800137
C 19.623020731189307 0.6977650699589212 275.1003060674335
C 19.742822637470148 0.9061508847157702 271.31337025466934
C 16.265903600396374 -0.5969312304382757 270.97224603735873
C 14.778008047893024 1.9700179895703558 273.381244289652
C 17.004753370660296 4.903303300651073 272.4562707371869
C 14.030430865688531 7.19985993938922 271.79374782229996
C 13.252032404584169 7.10436584586966 275.5408822858099
C 16.62638233422114 8.536170499180724 276.5882107792745
C 15.9020682812157 12.206855607588667 275.8882606135985
C 18.31361096273196 12.55826206765933 272.95155730606587
C 16.349633919807758 15.1696383183646 270.9845750563333
C 18.09438474176011 18.524548690676397 271.1754602757206
C 20.910118468920498 17.116096542113553 273.29551139465747
C 24.60683003506436 17.131412542727467 272.3929234565936
C 25.91063494044752 13.625324874190916 271.65359505193874
C 28.80467392452363 11.873313988106128 269.9458180643226
C 29.70041654826275 8.2521774883845 269.31832753742583
C 32.81639735896861 6.109335407648002 269.518676070128
C 33.537561605824 2.4281786721631367 269.08813422988925
C 36.17991781715837 -0.2435806177979072 268.5717943532877
C 36.227997086256565 -2.394595759805701 265.45435475385517
C 38.53488115154656 -3.95281643186253 262.8831003082827
C 38.83390982693939 -3.0434907447350805 259.21473533018576
C 39.05917297557182 -6.64337584996967 257.9593889660827
C 35.28992813836545 -6.901431009486058 258.4673332912938
C 32.938032753609995 -5.630933539462591 255.7995674351222
C 31.374265074682697 -2.9093910492438666 257.96633435154786
C 34.17275605512543 -1.3121555944440326 259.9742287130021
C 32.622200118316194 -0.031104805595761557 263.21141957838097
C 29.135848142362903 -0.509331962409495 261.79549612914207
C 27.865069329381534 -0.11124493748646004 265.3595534360121
C 28.75872100323249 3.583870310442327 265.5911954796715
C 27.160282521490007 4.098463427518057 262.1712823715934
C 23.91419419506273 2.5526810424529396 263.4093558885549
C 23.96092276250418 4.552294011269714 266.6490501015264
C 24.699368544075472 7.856241629334079 264.9034715343307
C 21.961065095290113 7.315277898514024 262.30505564780543
C 19.410080184205835 6.66209922787775 265.04594134470375
C 20.670915994283305 9.668734750246895 267.00474003188407
C 20.178939376236748 11.785645094372821 263.8781382966796
C 16.67872190486172 10.381455682681068 263.41128899724043
C 15.920393526120042 11.33071697649016 267.0314605689727
C 16.923078012931423 14.968254278228713 266.57814313104416
C 20.035842491618144 14.796172795559384 268.7305375796986
C 22.665574702464713 17.485366025807355 268.14895515994704
C 25.665091425663284 15.425644344124951 267.0345740447088
C 28.676360426588854 17.548119620015306 267.93251526022624
C 31.15740228183659 15.825662987011825 265.60833712392014
C 31.853999467779325 12.669800025780392 263.6462686966172
C 32.235564416881566 9.39112078691182 265.4563001002663
C 35.4973500468056 7.93529016253187 266.7158893735892
C 36.24057140455597 4.641968800568562 264.9387085018266
C 39.186232353253054 2.7392507569404225 266.41957549530827
C 40.85552657793988 0.0735841723722023 264.28282452183925
C 42.62432334234737 -2.7505467321373938 266.06772447488635
C 44.05350895486727 -2.1551715071583133 269.52083941661533
C 42.914880693936375 1.1625841273076283 271.0500946685648
C 46.08623343851109 1.452520829982753 273.12911524305446
C 48.06008695753219 1.7095775007520342 269.86279170080655
C 45.7979078925754 4.587614786204935 268.70989337992813
C 45.68774592683536 6.673277404881592 271.90056878039087
C 46.62110525765811 9.950882109254215 270.1803692722659
C 43.37294117275824 9.811523463840027 268.1976103528412
C 41.20429944920369 8.984152838785844 271.22190108618804
C 42.64062464883117 11.944576145279557 273.1282398811258
C 42.43306694039262 14.12443652578895 270.0230134348568
C 38.78353634518386 13.189546941578682 269.51070303204693
C 37.97064521251518 13.848633972063363 273.1724079702225
C 39.575392495985085 17.273128165999513 272.7718620217213
C 37.276908444035215 18.117755128776068 269.8639310055568
C 34.18544011662467 16.830941470018008 271.6901459353334
C 35.24594820911485 18.903059615487876 274.7108242138259
C 34.13688714535678 22.103659620753955 272.9839736375916
C 30.486056802510404 21.03022688280769 272.91784879813594
C 29.871302230903066 23.306063988906665 275.9198381429811
C 31.71046787692763 26.66401172507916 275.8045464340148
C 34.763563583837374 27.099156941605433 278.0264610794555
C 33.203543700985776 30.0595665390953 279.84910686751437
C 30.17439608167491 28.021496681249012 280.9352953184575
C 32.288222123416034 25.144903969842392 282.2538982817698
C 34.755966202061344 27.540366732926607 283.8772428691026
C 31.962483368446026 29.47761372620134 285.5895150468037
C 30.60870166263255 26.179875229664155 286.955139017551
C 33.88565925891688 24.900054337493426 288.3843309808394
C 34.55904695667851 28.353700028611865 289.86816648138864
C 31.114817918825935 28.23695810009068 291.4693683308555
C 31.625199332471208 24.616691490393094 292.5665468983002
C 35.0701515574136 25.406563187303394 293.995169829295
C 33.811534825111615 28.361817209239014 296.04336591987925
C 30.98817370068874 26.41091744518868 297.6855728140317
C 33.48932705383826 23.740689510232713 298.7207716753861
C 35.80077943371678 26.331730100902448 300.30021762732446
C 32.77068719917684 27.742572525867534 302.1163058433863
C 31.405182196783752 24.420026300097632 303.40527348851117
C 34.85013206553886 23.41519754746332 304.6635413841545
C 35.17019326180686 26.78720652613258 306.3992652213789
C 31.793171077581373 26.365243788593574 308.1161549173066
C 32.62554718030824 22.81180016304733 309.19763219573065
C 35.94904037090247 23.73007561511447 310.8015518757626
C 35.48918512719436 27.247940472228937 312.1662936653555
C 31.735006516500803 27.012638043342367 312.71861886808966
C 31.862692176065394 25.01794435868614 315.95742904383127
C 34.3908518268266 27.41346087683428 317.5039278420471
C 32.119121915723106 30.325838003768858 316.59213869888663
C 29.217776995582305 28.55513937308963 318.29798997068417
C 31.395239636173514 28.256928623882647 321.4039608407755
C 32.06931679468328 31.998529758250555 321.312725690699
C 28.327130006092634 32.59626879940925 320.9663328593411
C 27.772148247088055 30.521507770483755 324.1047433383522
C 30.34356607127356 32.725117162174975 325.8513463469675
C 28.90625855155115 36.17012923488855 325.1055926309442
C 25.169210186403323 35.73241305801772 325.67803523499384
C 25.17307818601918 33.31955839014318 328.6093917664549
C 27.785495622306872 31.47120809638391 330.63557483980276
C 29.842806406617598 28.471227090044763 329.5396402751587
C 29.38831753489929 24.83405430095296 330.5171293649266
C 31.98056996744598 22.382674898500344 331.7728709899651
C 31.245203039359637 20.392397039154858 328.6097440335402
C 31.666579057450342 23.288547832336416 326.1746378966456
C 35.07056162748453 24.116259125596624 327.6898632113035
C 36.12690331119914 20.530064058191964 326.8859830412352
C 34.95870404715683 20.24253475433385 323.27311024592683
C 36.63515163403578 23.619702793524525 322.7181683638496
C 40.03606475380601 21.908023982721588 322.8559717854949
C 39.007716757311606 19.790450835397305 319.8586876737493
C 36.966365376765246 22.440517094710195 318.05326711214536
C 39.99590470974252 24.73870214264667 318.04536325694846
C 41.96759880855114 21.956469294507716 316.34571720263904
C 39.2871223816202 21.892039646153467 313.65820976351085
C 40.241262848370624 25.512560100237007 312.98887135801
C 43.77836134131434 24.39260653500114 312.1077523730212
C 42.89467891138725 21.632301131938554 309.65376006565464
C 40.85244360226384 24.14673464301719 307.6761365400383
C 44.191428505184604 25.758501089130714 306.8208833205979
C 45.573868628755314 22.322668254978407 305.880101669844
C 42.86231533186394 21.114639519435997 303.5068308339599
C 42.536983730829725 24.430307252308747 301.6590125221118
C 45.926564458975 23.93733432734264 299.9386583432624
C 44.67376211391054 20.41224335114658 299.21329465139746
C 41.47951951215855 21.83074530305511 297.69690494842587
C 43.43467395259757 24.245482804432292 295.5025985246185
C 45.5228229277631 21.36770109706792 294.14959193127487
C 42.57692968722379 19.149712950960012 293.2156981838816
C 40.46409422270808 21.76998424175627 291.41514224239637
C 42.86191259285642 24.395930573707254 290.0142342257962
C 44.21479607808774 22.59052834732118 286.949547343861
C 46.4452961421196 25.59176404350125 286.1544562922136
C 48.11778874793781 25.496219094931874 289.57768334898566
C 49.14546782134549 21.8723607144938 289.025219094129
C 50.93778975075623 22.835799282974897 285.811043563156
C 52.64312633551805 25.831410571999644 287.43417301244773
C 53.78338752088195 23.396820797005287 290.134007087051
C 55.20615825448207 20.9532823094514 287.5821561125132
C 56.88108979434139 23.93547262475007 285.8846357189461
C 59.248183371019145 23.954155863490918 288.8718415677598
C 59.41561736555813 20.14260211506813 288.61703314406617
439
Mode 10 - Frame 26
C 49.1997158735696 36.06383026886272 337.4176733951673
C 50.614146956966195 33.8725477472377 338.7580260604395
C 50.43893548264657 30.634121672581287 336.80996864847185
C 50.22827064185718 33.010385206143184 333.8434924544559
C 47.49216148253813 33.94174015527347 331.3883021254593
C 49.00543095317427 32.199243381697244 328.36938092092066
C 47.88918982614142 31.38276795592829 324.84039852969624
C 46.966575764964844 27.71048374238623 324.3664785446204
C 46.668678637329286 27.204808917287423 328.14878355725136
C 43.3226437690641 25.41650684514282 328.1347686818561
C 41.54620911302584 23.355425712717288 330.8006778009371
C 43.114284725939775 20.10264572720482 329.47649235762003
C 40.92382258783564 17.45300774836888 331.07983113285513
C 43.118444255068034 14.355369482381038 330.6839301740852
C 41.66975843518766 10.881942306104296 330.1174710673988
C 45.14021258256938 9.393498688211777 329.53160638403205
C 48.719439215862224 10.484036717881352 330.24719669227323
C 51.543605657971696 10.897142166985601 329.2795328751307
C 51.12262008975452 9.184645705615079 325.9083090854144
C 48.41750613112868 11.736938395113764 325.14213714735814
C 50.68211938068929 14.568768297208576 326.2997867746825
C 53.6147859761588 13.166786328228786 324.3318417449981
C 51.79363010950891 11.813639905433194 321.27084748882385
C 49.3243492260034 14.696876603401794 320.9161320110976
C 52.21031941343477 17.14778683431351 321.26411928617006
C 54.292529782576594 15.661841046852421 318.4413151677447
C 51.14330810531025 15.031688843550045 316.3963725343957
C 49.817677664374884 18.58225967039749 316.756126285645
C 53.23433453113176 20.144841761924777 316.1550404938264
C 53.789040983279 18.046258206872444 313.0236669874402
C 50.318503123790194 18.93612087100838 311.73720512531673
C 51.04343649002409 22.624933321777725 312.27726613867895
C 54.43569201878275 22.67196682726399 310.56087886966844
C 52.97933208740342 20.712944273995802 307.63905880866787
C 50.37437259906788 23.45688938704572 307.1822807773753
C 52.929751147777914 26.27561679958676 307.27234975447396
C 54.991044497223605 24.572713134130883 304.5689196641376
C 52.083839303550675 23.5524865609765 302.3428978495782
C 50.56392645969556 27.041147598971214 302.5026959227757
C 54.050631858543916 28.439164316087336 301.9336117042902
C 54.136035880072015 26.164888710510507 298.8800883879199
C 50.924339604149615 27.719499810790378 297.5349896629984
C 52.346992800177325 31.20140404367169 298.1187235598902
C 55.435084391983025 30.165792506548858 296.14011885156447
C 53.92523046744474 28.875132488574263 292.88649812582275
C 51.71942128526174 31.971818852980018 292.61585709374043
C 54.431501323629206 34.59531915258333 293.1150115106079
C 56.80456958988054 32.415352263143085 291.0780829934793
C 54.74031600948632 32.276699859775256 287.8744377804494
C 53.4897471332931 35.33918390423104 286.0059313376438
C 50.61368708050153 33.50268097911067 284.30623395108347
C 48.91452722770267 33.396010837973265 287.739421121305
C 49.885916831214814 36.62685586180615 289.5346799278611
C 48.16583733342046 38.4968493995266 286.6837834654175
C 44.910083170917666 36.552634070617685 287.16105636553976
C 42.354628018804426 38.11287375030759 289.5530505055522
C 41.25985747671521 34.61064304253198 290.60930812913483
C 44.68993439237567 33.86638242902308 292.1068548889622
C 44.648654874858906 37.09142533553394 294.09718368359813
C 41.841956702885156 35.207649300533284 295.87510393904995
C 43.721304317537395 31.938061947290226 296.45934103626246
C 46.92938801422405 33.71493045420185 297.44661759297554
C 44.94187373964386 35.83485662957941 299.8937660354458
C 43.42174312170184 32.70482011239893 301.4453521946354
C 46.74815579263359 30.86978888905799 301.5478972251862
C 48.54509321626173 33.75448168915734 303.2669675866303
C 45.61578722085091 33.93073085155505 305.6883242659854
C 45.89596454513282 30.187704221142795 306.32735129023536
C 49.651762449846196 30.66562893057651 306.73502474414806
C 49.347684807534634 33.60126824400401 309.14955612298394
C 47.318442727782674 31.3696951467031 311.4562728299083
C 49.31423449861201 28.167779678746243 311.0203330898861
C 52.49465247446504 30.125007470408402 311.7858634450495
C 50.986273983649774 31.53246008431393 314.9843645831946
C 49.87099663239914 28.02315345358068 315.9120447193186
C 53.32296858629626 26.45297757761499 315.63763815662634
C 54.951494348563656 29.48303561531286 317.25781211239325
C 52.6292088505979 29.56346032261726 320.2723946042293
C 52.704996208086726 25.762030598193544 320.5362096690969
C 56.507343596041935 25.538586610299152 320.6799124683216
C 56.69562325027893 28.70732867193176 322.79290673603225
C 54.48885499915623 27.25451348921255 325.56089958108186
C 54.383192840687364 23.440793025726474 325.3262548723127
C 58.180548011694604 23.225335628834074 324.9292964494502
C 59.6789387926185 26.30969579082873 326.59868766265663
C 56.76985518650324 27.023469411389243 328.98352649331497
C 57.37947276687763 30.758739438717807 328.58961448872077
C 54.86935705523045 33.29730919766949 329.882655244574
C 52.70076314214207 35.67833424861316 327.8733119898524
C 52.19201068527415 39.290473257284674 328.90524393827167
C 49.029136169502614 41.169059008002925 327.9118528634945
C 50.297856955762704 42.44276434912283 324.55562588863603
C 52.15958895533043 39.27631845556534 323.5378566341482
C 48.975643042365306 37.30829762034983 324.2368336384519
C 46.61795868716811 39.55427805200211 322.25584710424624
C 49.059182280913255 39.6973818981314 319.3390686316462
C 48.94788936822545 35.90187320144314 319.05967583093565
C 45.16105012834137 35.83537755329663 319.408955769901
C 44.764788527352515 38.80594906282463 317.07253761512436
C 46.85437023192111 37.04837449602172 314.44657476576816
C 44.51224475321544 34.06011877365781 314.5432960483111
C 41.553626753641055 36.44890336340987 314.5816455062608
C 43.017568503894694 38.26536973270134 311.56877143284044
C 43.56628283766639 34.973148041432346 309.7327774189127
C 39.865521752645996 34.108748687273 309.90079420104485
C 38.76734126873287 37.68610442940729 309.2299321538316
C 40.74177917049084 37.87987588884385 305.98739307562124
C 39.44112932290721 34.416530863228175 305.0775900720993
C 35.83870894187527 35.613092132958016 305.3727963363453
C 36.83323834423109 38.90735176492964 303.76198459423233
C 38.274175132422826 36.98150694716415 300.81701801862954
C 35.10243868523443 34.918393596537484 300.35688271605534
C 33.2282671027787 38.228338919357306 300.3894262915823
C 35.31553690898412 39.70696086974228 297.5734662443606
C 34.89267887164236 36.48108174557527 295.6060176899448
C 31.11208384125741 36.811338852621795 295.8575242917784
C 31.4029240578281 40.322778442392064 294.4032960796677
C 33.50325754803394 39.05330674511466 291.4985666425271
C 30.878226360999495 36.41048575444081 290.74207416154604
C 28.10080809460808 38.99602449270209 291.01783447115304
C 29.877510471348316 41.07368025953331 288.36613818852726
C 30.351334558806535 37.9848986780846 286.18265300844985
C 26.624463682922983 37.230891795378746 286.4457422492269
C 25.266647894254 40.75436627748761 285.9468784246293
C 27.92353833103019 42.0239457087984 283.48679633908876
C 29.076500822945146 38.92827499484571 281.5768015172349
C 30.068555780249785 40.938209089407636 278.5015571364623
C 32.3253012083328 43.519273260331545 280.1798456221839
C 33.39137005875049 41.40434570032404 283.1790824150643
C 36.97464752826117 41.00390023072164 281.94770706807003
C 37.51209042855967 44.77241641528155 281.74275036499927
C 35.787844562991516 45.543598098137245 285.0691073064122
C 37.589366059815326 43.098798379890916 287.3826022858527
C 41.25688919932205 43.69572524348382 286.55759457493923
C 44.57984435130132 43.03352599092789 288.2551685967982
C 44.888260809984715 46.59296732124969 289.65570566908804
C 41.249015822476466 46.50751972961455 290.77907345829556
C 41.67466670178049 43.1683994655691 292.55138262612434
C 44.85155539671323 44.23576341814375 294.3685694155757
C 43.16709318134367 47.357637537194876 295.7509095839487
C 40.133200253684684 45.39784523838027 296.9439946840127
C 42.25356752294495 42.794348078532366 298.73276914414026
C 44.69876185662645 45.30801411257337 300.2164324616893
C 41.77380670998499 47.280708369204106 301.6357407740518
C 40.11416524863221 44.126121211965554 302.91894494565537
C 43.223865170377486 43.00006753261851 304.8004778235742
C 43.709812122611346 46.37862616323793 306.47125794948073
C 40.09831151231246 46.17249398760765 307.6325243694904
C 40.76090747701284 42.59784775028049 308.75654013064906
C 43.99854858673754 43.528195246517555 310.54290239227277
C 42.38970041889107 46.52733214809436 312.23084838563307
C 39.90664233529734 44.31240614509539 314.0686006771365
C 42.6603172674284 42.123548793164936 315.50846455500255
C 44.631729170073214 45.156101018328634 316.66101280593074
C 41.54116817266617 46.85131861122667 318.18484535957214
C 41.502362864656355 44.38243581611897 321.1063513050312
C 45.284268337490325 44.547419345509994 321.31947942314883
C 45.061019325973135 48.32298462725273 321.2656770538667
C 42.021204183098355 49.35698979738674 323.3263223337674
C 39.17105231463294 46.91623264348224 324.0132818887246
C 40.211478400846815 44.92144930614455 327.0901611571959
C 39.37641989994998 43.544049209544234 330.49045962825096
C 42.38256503675926 45.30745297933355 332.00928516603415
C 42.08866370887931 48.643908186122765 330.2190710605224
C 38.280091323941015 48.89320249229543 330.3716773977686
C 37.61798439737428 46.9613495273431 333.6141231206525
C 34.8706934387099 45.27876678738033 331.59049696920397
C 33.36572686765241 41.809699893050784 331.870847201136
C 35.948522113836034 39.242591186957156 330.8436977932481
C 35.43240455769899 36.32524308735956 328.46898169415107
C 35.200628353661386 32.88755353635275 330.0746368588289
C 37.27950299099534 31.443631616695455 327.20638360918633
C 40.00581062687988 33.941472145954144 326.34062816918504
C 42.02077266210021 35.968387054394256 328.8690977743016
C 42.16674494421201 39.762563829711524 328.5204226424342
C 39.27744154455852 39.72856382544262 325.99903923392935
C 36.30791488669018 42.07634023961796 326.31206685922507
C 32.88222831298256 40.4743222643461 326.01393759275504
C 31.40578603690523 43.38970300741153 324.07202021962297
C 34.264464588074226 43.23553652551423 321.5746177055631
C 33.283466136744096 39.658305833369674 320.71893934219884
C 29.686976536180982 40.693107319309384 320.04745672747487
C 31.031682728609994 43.18785233610067 317.5093274069562
C 33.42825202759575 40.597663738382465 316.08309131262405
C 30.88435980029072 37.761496169620756 316.0270821742482
C 28.171465944132787 39.951077506507104 314.53227116758745
C 30.447677730520894 41.22415829231137 311.76719187537225
C 31.55245729747478 37.77987554324639 310.59151994395364
C 28.094963934915953 36.26444958720584 311.1279282484159
C 26.472655532939033 38.86618028557095 308.87068544115584
C 29.19594660441736 38.44657184360137 306.25780876903707
C 28.92022077546182 34.65017546870825 306.33998152473475
C 25.12020665431655 34.76540686551572 306.1558349918454
C 25.451518807395775 36.85730498384044 303.00260166694113
C 28.2303027653684 34.68449094950411 301.5520210230067
C 26.113724615011595 31.564746799137566 302.051821074716
C 23.186532791213256 33.179896017841365 300.24258660739116
C 25.449612791747466 34.5797439858519 297.5269508067349
C 27.295791192503312 31.323869633017853 296.8439677918462
C 23.95780744724739 29.534558505036866 296.4134114895738
C 22.751320154224445 32.202970788199394 293.9801957393766
C 26.09508506006421 32.093200605000504 292.1413425688337
C 25.916641702728665 28.312334045336154 291.761811474583
C 22.245661548825314 28.480410409012904 290.73778581609105
C 22.986200069819855 31.11472866809333 288.0962515242819
C 25.904155940901838 28.9878110410554 286.8884106163442
C 23.490115292374906 26.142594236622735 286.1058039799112
C 20.892548806508486 28.359785346953604 284.40509054318636
C 22.843271030277872 28.511863265658643 281.1326723723658
C 24.469332538106965 25.0818758041806 281.240569082239
C 25.2283975539635 22.2396528420804 283.55970037579186
C 28.64902369231439 20.716131840214008 282.98261700382676
C 27.869275893017285 16.988908652305998 283.22421164662995
C 28.9871710001588 14.427794130653966 280.65751177421504
C 27.541753380159175 10.924544139376303 280.3842773785984
C 29.456726983354933 8.03869963602053 278.8288800639977
C 27.71301021555573 4.724624907713454 278.10598547859814
C 29.879629075672426 1.9671931410465104 276.653230537795
C 29.340341546112853 -1.5919693074281958 275.5145609317972
C 32.468063418110596 -3.7540721599325657 275.5575171945664
C 33.2331940493209 -7.4669220004584265 275.93281904328734
C 37.03711559169167 -7.577699920217004 275.7136104565153
C 37.50867498062315 -4.082052600357398 277.16062758196597
C 38.73984341683659 -2.142271356663275 274.12240950980123
C 35.74300649835006 0.18596556990248006 274.1597543531701
C 35.914756869757355 0.3610141203972467 277.968585952066
C 39.53938404376949 1.4917058785773587 277.76143736207877
C 38.53335864410181 3.968776588563554 275.0514647280013
C 35.758554605226045 5.4103543105859915 277.21794936696466
C 37.99158610891939 5.615912354049551 280.3001297902812
C 40.567640484876186 7.5214683171053345 278.24398518594325
C 37.93323131881571 9.983895496288778 277.01497071490104
C 36.65327151102996 10.204906952740185 280.5927640846517
C 39.88106630143345 11.635322098274662 282.02087549204526
C 40.38422349715394 14.207624389475672 279.2484911715744
C 36.90186594885634 15.600401209536393 279.9041786947975
C 37.43206300178828 15.384519070849844 283.6704019710402
C 40.49155670712227 17.63534128621536 283.35095835374636
C 38.632073913494196 20.02680955225133 281.0371627504263
C 35.95384978656125 20.85345626925857 283.6190285399703
C 33.18172689131654 18.302343626097635 283.05460043442315
C 31.514111055056397 16.332694934004575 285.8354463407282
C 32.00824737772284 12.996179840769484 284.06512436933366
C 29.705667894017463 10.020371434936093 284.7313501951116
C 30.850951064036735 6.776080336113254 283.08479617639847
C 28.51569530056091 3.7664383582563428 283.0534415609743
C 28.455359644139474 0.33025577345769563 281.45241627954806
C 25.511997173622245 -0.1809416691381709 279.0951212026759
C 24.518482683429472 -3.3670373846127886 280.94571503311084
C 23.709715007075772 -1.3591445793377208 284.1005702104191
C 21.49737628849721 1.457842255343896 282.7510282793886
C 17.808830519903005 1.9041363753774911 281.993381541011
C 17.008066917722026 3.761318341631561 278.781120444988
C 14.074340031969477 5.784194913946835 280.121338012412
C 15.233630447216406 9.330828781544053 280.80721719624796
C 18.86682513244836 8.20965466347814 280.8108239048648
C 20.286551732999456 11.374105410143201 279.2355636397328
C 18.40542022667738 13.760994285323257 281.53294118456074
C 20.598709990070425 16.07539416420125 283.58127519142937
C 23.526414099684047 15.731159096252808 281.1639816580893
C 24.29672021872136 18.18551982789266 278.3719075133762
C 26.966890446069748 15.96404818791563 276.81641936268585
C 26.391052874613248 12.26296105105434 276.138455509086
C 28.95968111019719 9.936946548724146 274.569090854401
C 27.775548407340573 6.51187185117239 273.4478358675204
C 30.439288263173697 3.9020661358603053 272.7200982344314
C 29.861087078565507 0.4508969048775884 271.2852799269665
C 31.903881156581964 -2.250510976794418 269.56904139614073
C 30.748083855405387 -4.108579538505822 266.4566887210708
C 30.173131106407155 -7.877603144305031 266.43864162504326
C 28.89619511727074 -8.71851127833489 262.9693683735335
C 29.7285893562811 -12.421835089088336 262.66242278418076
C 28.240003127924837 -12.497705804293597 259.1691825884667
C 25.925473771813113 -9.480779355695606 259.5687310801576
C 26.234444294207986 -6.26518473924041 261.59880150234454
C 25.53148889303435 -6.399511909017353 265.3263103644037
C 26.02971634040523 -4.136601700455627 268.3200345150156
C 27.81310039832769 -5.3496794265475005 271.4248393619115
C 25.191298731915616 -7.313956795667292 273.2999961436662
C 25.058077426434917 -5.141845019326342 276.41914664887736
C 24.218752995949334 -2.1126166951567114 274.2598270678543
C 21.27963914654069 -3.5614734151394756 272.31005476917215
C 18.62044199290785 -2.9672340271790776 275.03014494954596
C 19.625146143684173 0.7010618804541964 275.1042355670007
C 19.744976157536296 0.9065551464525041 271.3171487564224
C 16.268755083960702 -0.5982180005992991 270.97717728649894
C 14.779709589214441 1.9700154370253622 273.3840474327259
C 17.005214035773662 4.903544045779679 272.45694177356404
C 14.029944059229901 7.1983190196578875 271.7925065914325
C 13.251318355339336 7.105307167789955 275.5396219758788
C 16.624909182016026 8.539409783214282 276.58605251769745
C 15.899078897107096 12.209288230055654 275.88339936588716
C 18.310686467666457 12.559643785507683 272.9466539605802
C 16.34571293546708 15.168696405579981 270.97768272847844
C 18.08893832039067 18.524470836808216 271.166313989799
C 20.905277390155856 17.119204429665405 273.28777675815536
C 24.60202988225742 17.13546882475641 272.385556023322
C 25.9072813723677 13.629251705262245 271.6484025701411
C 28.801882386062438 11.87695858326711 269.9417290613971
C 29.699080431687964 8.255557670987974 269.31657837981294
C 32.81591530678751 6.114112085743827 269.5182963618152
C 33.53890082212131 2.432977589499216 269.0905273185628
C 36.18262539323258 -0.23782262298473753 268.576222130923
C 36.23182853697645 -2.3912477510777257 265.46068947988164
C 38.53958039389331 -3.9504303438063384 262.8908900403594
C 38.8380374394472 -3.0442724544517192 259.2217255074836
C 39.06553349416798 -6.6453089842950055 257.9699755458248
C 35.296465287248836 -6.905059000451855 258.4783534415565
C 32.94370371698853 -5.638605044142269 255.80956113076442
C 31.378342280992317 -2.915720625307837 257.9736652043527
C 34.17591225446793 -1.314829432234992 259.9798718716496
C 32.62472574833299 -0.031515605511271534 263.2159005329289
C 29.138565604612644 -0.5128321169217933 261.80053378296157
C 27.86761351707557 -0.11220341512988334 265.3641572877346
C 28.759611931778707 3.583604931588817 265.59287042624726
C 27.160951885789167 4.094708524644313 262.17266120851104
C 23.915585543372135 2.5486114815974896 263.4120013065604
C 23.96150128283302 4.5509752815019455 266.65003622449683
C 24.698606799907488 7.854078990433732 264.90212761576794
C 21.960630188092047 7.309988527431539 262.30419641030375
C 19.409926916577298 6.657970330579494 265.0455239965098
C 20.669509011177848 9.666644032557048 267.00208100370156
C 20.176819624109967 11.781013073120453 263.8740038558985
C 16.677200570886754 10.375005963595711 263.40798451513564
C 15.91835122481366 11.326642316944469 267.02742229115887
C 16.91951968690734 14.964245271064234 266.57145397945504
C 20.032175693506847 14.795155045661328 268.7242181304932
C 22.660668888599332 17.485172200036825 268.1410156671983
C 25.661105525693273 15.426120479042845 267.02824942147333
C 28.67134312611541 17.550940452497596 267.92534763631727
C 31.152946603590458 15.82769726965467 265.6020461174393
C 31.850594176818 12.670537851526028 263.6418319728139
C 32.233497867838906 9.392948221933356 265.4537034940998
C 35.4958814758706 7.939363809119798 266.7140604968914
C 36.24063221807921 4.644952923132788 264.93931742366084
C 39.18733450674668 2.74489078776756 266.42148030190265
C 40.858005886512544 0.07846744344408876 264.28682234804086
C 42.628534171312246 -2.7432327524005387 266.07386485082594
C 44.05755155695167 -2.144647291986691 269.5263959223623
C 42.91716786662479 1.1735686863806216 271.0529190414151
C 46.088470560176575 1.4669197368085185 273.1315110257751
C 48.06206108288347 1.722691354117702 269.86494961048425
C 45.7982047422626 4.598453104808787 268.709766618009
C 45.68721441626556 6.686433838931321 271.89878539274855
C 46.618678188031815 9.963243290287648 270.1759182777567
C 43.370395494912756 9.820813947229682 268.19369271242374
C 41.20241238676629 8.994205361614117 271.2186516448872
C 42.6374144313015 11.956413178544233 273.1229559043408
C 42.42851695356456 14.134448796191778 270.01648457616466
C 38.77948731546298 13.197557081276315 269.5052114483828
C 37.96658073557927 13.858192555951236 273.16653258215047
C 39.56994497436657 17.283184189656097 272.76436141519036
C 37.27082015332889 18.12559383846614 269.85627872062094
C 34.18012772837068 16.838611849429036 271.68331449557303
C 35.24027994694042 18.912274024175495 274.7031870815975
C 34.13009242537605 22.112079443182775 272.97574774250506
C 30.479521790370207 21.03785676492095 272.91006628736324
C 29.86558373648155 23.31485210623893 275.91219903434114
C 31.705293440026686 26.672807258140015 275.7978000576584
C 34.75837556705717 27.108073760124107 278.01944303354065
C 33.200061188627885 30.06771578836594 279.84355798352675
C 30.17065073452103 28.030790964827737 280.92943591457487
C 32.2836501176269 25.154140463132663 282.24724387191037
C 34.75270752145165 27.547834881398817 283.8719584683527
C 31.96000264857798 29.484337377381493 285.58504336830595
C 30.605054846784036 26.18712933712709 286.9494436815161
C 33.88159278893325 24.905864128598843 288.37889218762155
C 34.55606059831424 28.356296616491793 289.8645956025513
C 31.11158027816454 28.24036941175838 291.4652012504631
C 31.620062999415673 24.619998741112827 292.5612193587654
C 35.064738222634034 25.40605760569511 293.9913146948824
C 33.80762790134412 28.360566133040084 296.04061808428014
C 30.983324785073595 26.410787268643215 297.6819442805459
C 33.48303747620406 23.739456553280256 298.71725681567904
C 35.79584457047878 26.32793735967021 300.2980583940757
C 32.76633298420232 27.739653484619097 302.1142759834067
C 31.400190185385462 24.417894214320768 303.4029644388337
C 34.844863386736584 23.41148037038231 304.6616199935016
C 35.16590913173909 26.782352952906344 306.3982343571564
C 31.789315766049132 26.360526818456616 308.1154234846985
C 32.621780393728486 22.806862358519023 309.1962654808784
C 35.945061715106256 23.72367982391873 310.8011897894218
C 35.48575349296853 27.241563856493702 312.1659682165591
C 31.731742115664414 27.00545299770392 312.7190986178091
C 31.86103317004744 25.010148288801172 315.95836139857573
C 34.38874449710925 27.406159079129555 317.5043637513683
C 32.116266811669696 30.318340805151664 316.59254468967396
C 29.216247844770127 28.5467480714786 318.29983596725555
C 31.394921853592315 28.249560457422973 321.40538529978767
C 32.06785294190088 31.991501967482943 321.3130483930596
C 28.325408876253928 32.588142914002646 320.96742075199876
C 27.772127212268714 30.513489867676814 324.1066243296517
C 30.343201970727904 32.71843169531575 325.85200665505243
C 28.90437729209271 36.162732603679096 325.10579232291946
C 25.167619570028616 35.72369914263851 325.6793072479204
C 25.17306709218381 33.31139141462917 328.61118075211596
C 27.786702310753316 31.464651617115162 330.6371959588671
C 29.845104119953724 28.465377367109987 329.5415358901226
C 29.392529187884545 24.828370985378985 330.52051637578046
C 31.98616470540832 22.378748099681914 331.7765784422519
C 31.251275511656978 20.38694887290476 328.6144627315979
C 31.670186041850524 23.28251070892137 326.1779527517966
C 35.07417108502727 24.112249430637807 327.6918690840675
C 36.13316020227601 20.525656370590063 326.88981648480694
C 34.96286085781353 20.237350828179686 323.27720942093043
C 36.63725847269043 23.615204475593874 322.71984715789665
C 40.039035261539475 21.905040884138273 322.85767847209775
C 39.009601520202175 19.785988267873336 319.86128601466396
C 36.96532030146791 22.43405866185545 318.05479000450015
C 39.9944993278036 24.733352575449686 318.045311714322
C 41.9655273796652 21.950443314846385 316.3460411093728
C 39.28355776011089 21.885648958603316 313.65888945145934
C 40.23753640572625 25.506237455586383 312.98874772078676
C 43.774620923479596 24.386277301709296 312.10792939914995
C 42.8901839820995 21.625163890750134 309.65464545162325
C 40.847698280511274 24.139677781094733 307.6761171663355
C 44.18696910610055 25.750767914882616 306.8210417665397
C 45.56849543879944 22.31406001990349 305.88079669523205
C 42.856311198003695 21.10702859354444 303.50713861751484
C 42.53145231873952 24.422743471889564 301.659010745346
C 45.920950647211505 23.928064022000463 299.93899060156895
C 44.665991902785976 20.403979186330908 299.2131109529612
C 41.47235128494176 21.824396379926633 297.6964927645096
C 43.42876082421456 24.2383197856847 295.5026554900688
C 45.514760307204725 21.359230092289984 294.1495079419865
C 42.56658167421787 19.144787520978316 293.21403832541296
C 40.45698633992622 21.767858123648814 291.41341937634525
C 42.85738450644193 24.39154182625492 290.01420099143473
C 44.20985885317545 22.587189903768827 286.9498953519026
C 46.44440278081475 25.58385166831661 286.15510100013785
C 48.114839026881455 25.48554623724829 289.578863400843
C 49.13915827017169 21.86095831102271 289.0264650192332
C 50.93384665552021 22.822490077394583 285.81316573601697
C 52.641263836228234 25.81659572775533 287.43641870798365
C 53.77794070518217 23.38138018474448 290.1372695576757
C 55.19932506675437 20.935789749286055 287.5865325600343
C 56.87809735772958 23.916250377456496 285.8896535663306
C 59.24361686381806 23.932850207488993 288.87796532936005
C 59.40701635119679 20.120807469499677 288.6245486255518
439
Mode 10 - Frame 27
C 49.202074898359776 36.07180991554096 337.41335147871257
C 50.61976077161096 33.88288608321043 338.75404853071996
C 50.44772936136067 30.643294740852955 336.80746651960754
C 50.232186143906496 33.01762166855954 333.8400445926163
C 47.49421829276037 33.94555750229102 331.3855212239944
C 49.008267656399674 32.20316458267181 328.3670016605719
C 47.89165882479014 31.38427986483449 324.83885181581707
C 46.971054649694665 27.711009783469336 324.3659603876998
C 46.67501752821759 27.207148490643917 328.1484106922541
C 43.32815372169861 25.418491454920385 328.1329355281775
C 41.551600876589276 23.360563137688406 330.80220855736866
C 43.12154219443863 20.10878244125606 329.48077962230644
C 40.93535780803689 17.457814437829008 331.0867653142771
C 43.14720123633079 14.370553395167127 330.711540285979
C 41.71412900441037 10.888853245988477 330.1694277622035
C 45.1905508600058 9.41262767122817 329.5870887577084
C 48.765967089361354 10.521032117750677 330.288130729992
C 51.586544767843876 10.934533635842357 329.3109890698005
C 51.162211271737974 9.206879807523022 325.9477562280828
C 48.44834074603772 11.747404120368707 325.17681192555784
C 50.70676314066046 14.589095258155945 326.31906458815325
C 53.638872265876806 13.185228007327671 324.3485993834252
C 51.81168633336017 11.821241235051863 321.2965933743054
C 49.33681963348058 14.699202026507248 320.938264447476
C 52.220078313390964 17.154730276652437 321.27454719489674
C 54.298690735655455 15.664592017153877 318.4512840122183
C 51.14554331995293 15.02924520984272 316.4142735491819
C 49.81816316472305 18.57948764445732 316.7680161295687
C 53.23342836737538 20.143202387278162 316.16088562225445
C 53.78380599227727 18.03972346221469 313.0316807692308
C 50.312544348333965 18.928360495805055 311.7469879179956
C 51.03811881559781 22.617630268893205 312.282018809855
C 54.4294846965934 22.662357143633603 310.5638309897748
C 52.97090038517011 20.700621565237384 307.6444819943984
C 50.367395826076255 23.445205323564 307.18556698974476
C 52.92353146426257 26.263362551621817 307.2735309774378
C 54.9839272592686 24.557302892864193 304.57123608509795
C 52.076137791974666 23.537541800250175 302.3456369448764
C 50.55808823986259 27.027318985232604 302.5038047768583
C 54.04569145482841 28.423241638254453 301.93494722175706
C 54.12996572822491 26.147560251446706 298.88236953600494
C 50.919669355166086 27.704343223172152 297.53624616557937
C 52.3444856222317 31.185431249126818 298.11961757931607
C 55.43276712306254 30.14702076110385 296.1423936310136
C 53.92288266043719 28.85670778138502 292.88869361536115
C 51.71954226958626 31.955341225822977 292.6169322539165
C 54.433696144643974 34.57643730813699 293.1162634457948
C 56.805704854729946 32.393745756659925 291.0803652693095
C 54.74234051477971 32.25627502736771 287.87622777175295
C 53.49460830613998 35.319703163609944 286.00720003354417
C 50.61751552316777 33.48581406158793 284.30702126969516
C 48.91734380407106 33.38158364428895 287.73975119683234
C 49.890533470609206 36.611206725403804 289.53495589808523
C 48.172770218571294 38.48224689874124 286.6834106196187
C 44.915083149698084 36.54121243973024 287.15979024037404
C 42.35972315028675 38.10370163891271 289.55074032082484
C 41.261768784533906 34.603191617607884 290.6073622002661
C 44.69120244966318 33.8556405763336 292.10563088387056
C 44.65144476570513 37.0802563990881 294.0958909417104
C 41.84238386829998 35.19894222577145 295.87299164060624
C 43.719568242436054 31.928223321232963 296.45801539871036
C 46.928679726383315 33.70240157764054 297.44586131010664
C 44.94127296446625 35.82380658505252 299.8923515488707
C 43.41887002691785 32.69482298667423 301.44381516742163
C 46.7443601984268 30.85791677845017 301.5472915401933
C 48.54235598871159 33.74225568696351 303.2659290782371
C 45.61227773605475 33.9205433295015 305.68679307744935
C 45.891163647908066 30.177522266361386 306.3268597367254
C 49.647003802040935 30.65441743117681 306.7343924004329
C 49.343360505245464 33.592013660969414 309.1475583492833
C 47.31375092008936 31.36160565826152 311.45537956522
C 49.30916810881606 28.159254404442457 311.0208906259179
C 52.4901258747015 30.117270802385974 311.78359236661584
C 50.98266273771893 31.527973705044072 314.98157062450747
C 49.868488653301 28.018731177589494 315.91245348428833
C 53.32130269813633 26.449846411271857 315.6370866317103
C 54.950554773866166 29.48281911275848 317.25262496843544
C 52.630628587419544 29.565663715177568 320.2691762555839
C 52.709805310122775 25.764741941474202 320.536583950173
C 56.51228913114629 25.54452662622246 320.67679491352726
C 56.69946503709532 28.716249408628883 322.7870726395677
C 54.496202305015714 27.264231816283125 325.5582028343073
C 54.39569594159807 23.451289141458734 325.327246874123
C 58.19381308935229 23.239690391232504 324.92609862074124
C 59.68898632091925 26.326902055838996 326.5924812511456
C 56.78012925016803 27.037587148691326 328.97923528770997
C 57.38480941177715 30.77300978186304 328.5827962039483
C 54.87200015040633 33.307697404081786 329.87791900877346
C 52.7003945450648 35.6853723071276 327.8684384569025
C 52.189499768325156 39.29748225507348 328.8991302904168
C 49.0249265637942 41.1726006397223 327.9058209725306
C 50.292451380061394 42.44553135361591 324.5488052206323
C 52.15591186238808 39.28001490490124 323.53140584104995
C 48.97341804063943 37.31011691309304 324.2324782220286
C 46.61378618537107 39.55317463867246 322.25127981577884
C 49.05454492144199 39.696047718122585 319.3338278605618
C 48.94540381344579 35.900436311073975 319.0557715191198
C 45.158530965545964 35.83195371234027 319.40645633339113
C 44.76023348479047 38.80115140228365 317.06908031213425
C 46.85011169384287 37.04265166801797 314.4435278100317
C 44.50843056118283 34.0538222354059 314.5417707588753
C 41.549523644846985 36.44202468738273 314.5794199894405
C 43.01368662954011 38.257975445090416 311.56610147634336
C 43.562460683815516 34.964963872210625 309.73094243869184
C 39.86164965196378 34.10085706273097 309.89874665547654
C 38.76434312716896 37.67855654836109 309.2270195405715
C 40.740152881017025 37.87174861500582 305.98480221732154
C 39.43838454701274 34.408684776311475 305.0751670872479
C 35.83647016340038 35.60680116412892 305.36970305974495
C 36.83277040286561 38.90100651823853 303.7592700748698
C 38.27413851977678 36.974711144698965 300.81429651166525
C 35.10109263348839 34.91413017392436 300.35356232425175
C 33.228838433872326 38.22534126894663 300.3868284892559
C 35.318769575266636 39.70320602551606 297.5712782034822
C 34.89379129038251 36.47855597297812 295.6028781378413
C 31.113111598294495 36.812313297766806 295.85448788797913
C 31.407539186448926 40.324288159030374 294.4017707836766
C 33.50759390129077 39.054496959482975 291.49656666964313
C 30.8796424371504 36.41519251342068 290.7389228036631
C 28.104611238437137 39.002918250908735 291.0157785068397
C 29.884302632352817 41.08064598206823 288.36527307155234
C 30.35419141394219 37.99286402334116 286.1802168663184
C 26.626666372988105 37.24199443341067 286.44286933683986
C 25.272993212195132 40.76746029101351 285.94585855617
C 27.93157900933444 42.036291417415725 283.48683891581294
C 29.080159147117133 38.9403428070075 281.5747524421664
C 30.074293184481924 40.95112690726389 278.5006044355197
C 32.335272971118194 43.52736935350136 280.1800869528622
C 33.39860968783421 41.40929079551364 283.17801990099156
C 36.981411036568716 41.003712031253805 281.9460958521067
C 37.52419682558196 44.77149313307648 281.74217538214566
C 35.80125670147304 45.54368211850544 285.06929393019
C 37.59974237880217 43.094659391440544 287.3810129753377
C 41.26820143700415 43.687629463101764 286.5557978195175
C 44.59032973706665 43.02212695484822 288.25387900891053
C 44.90263121378184 46.58084885122974 289.6551400302243
C 41.26301932875603 46.49946691333036 290.7771765889912
C 41.683934884849435 43.15953556361048 292.549421123144
C 44.86105590580398 44.223896632406976 294.3680322614524
C 43.178780889024324 47.347260466228136 295.7494650875648
C 40.141938780179316 45.39014248608703 296.9406508845321
C 42.25888435843226 42.78486774861011 298.73072683689145
C 44.70508334994425 45.29672208820925 300.2159239387246
C 41.78011882639751 47.2719889457275 301.63245005620723
C 40.11726655615908 44.11836076548277 302.9147753166167
C 43.22493864207665 42.991063966615826 304.7987054758341
C 43.70985139968079 46.370342039341025 306.4691134540897
C 40.096782990020095 46.165073723647915 307.627188323253
C 40.75779096568614 42.59035352978365 308.752664187918
C 43.99446181927608 43.52104649337848 310.5404141147258
C 42.38307322674782 46.52057288858547 312.2264898862094
C 39.90002728593168 44.30521330214782 314.0638758490367
C 42.653770175752335 42.117371413283045 315.505022525737
C 44.62384162573698 45.15148064736355 316.65661993330497
C 41.53235262409097 46.84581652325294 318.17965126506135
C 41.49517906978435 44.37795451028337 321.10188766682387
C 45.276895247250586 44.54524110916117 321.31436183018195
C 45.05139866712396 48.320897271766675 321.2594728601967
C 42.01112676473367 49.35385607641568 323.3199832398646
C 39.162888157761685 46.91158475536708 324.00841464862384
C 40.20489762311353 44.918428578611405 327.0857372707106
C 39.37131475072014 43.541530238829736 330.4866005151038
C 42.376593317968 45.307358280866296 332.00420818386266
C 42.080162678879475 48.64309115274361 330.2129935539585
C 38.27150089805064 48.89002430598047 330.36630935990974
C 37.61129783756213 46.95876777311259 333.6094981290435
C 34.864694876601476 45.27379817585698 331.587048163525
C 33.3620209431839 41.80390903854423 331.86878857553154
C 35.94611333613029 39.23807739977164 330.8416704023975
C 35.43106564055062 36.31996584509991 328.4675221226298
C 35.2013332196823 32.88283856336034 330.0738765482999
C 37.28044312187645 31.439527491246185 327.2050490714696
C 40.00564115971581 33.9384466436006 326.3390334475801
C 42.020193017883216 35.96705179643298 328.86677770771473
C 42.163662411493114 39.76119161564573 328.5169893752813
C 39.27379526885909 39.72468292915085 325.9963132917597
C 36.302915313980286 42.07083363007923 326.309335141796
C 32.87799944404143 40.466937900323636 326.0122781840096
C 31.399559059576156 43.3809847048548 324.0699254233054
C 34.25809575492326 43.22768925485741 321.5721889437447
C 33.27876943524525 39.64967056279743 320.7174886246466
C 29.68175501829149 40.68263203713764 320.0461069038735
C 31.025477348595604 43.177848473787925 317.50779556177844
C 33.4236000870974 40.58811741758211 316.0818178815283
C 30.880312499943606 37.75114865252457 316.0258106535932
C 28.16739645368028 39.940399399981644 314.5307510796393
C 30.44460924928968 41.21534480929278 311.7663155347905
C 31.54985301315177 37.77133022780484 310.58973879065644
C 28.09225373452662 36.25557520697189 311.12522550853663
C 26.470846033825275 38.859661830901 308.86866063259566
C 29.195121539427618 38.4416439864253 306.25596723485563
C 28.91787499463043 34.64512141952255 306.3362223624393
C 25.117654768681856 34.762395010489996 306.15106117863274
C 25.45099223326308 36.85703216792958 302.9993400304016
C 28.228985128611807 34.683552085403555 301.54804454639736
C 26.110228218399786 31.564590675605128 302.0457958294164
C 23.184330838254375 33.18326266685643 300.23681943603646
C 25.449066569535063 34.58376958898702 297.52257089547044
C 27.293117105111847 31.326823684109957 296.8383299881674
C 23.95408467705641 29.540086282706856 296.40600847239944
C 22.749580768353983 32.211339172190065 293.9743012247611
C 26.093394822256332 32.10068471649092 292.1358354723563
C 25.91253546872429 28.319999317126662 291.754324837772
C 22.241760222783505 28.491404627272416 290.7296773725859
C 22.984276731499406 31.126910693646856 288.089718176666
C 25.900778429551615 28.998721504411435 286.8812168386511
C 23.485282880395044 26.155222479859404 286.09685551142746
C 20.889089163881994 28.374882320370297 284.39712745129776
C 22.839451344843347 28.525898664997666 281.1247967019837
C 24.463409424769377 25.09444518376901 281.2312516068876
C 25.221833677831164 22.25205977651368 283.54993733876074
C 28.64232891762283 20.728438636769656 282.97266233935596
C 27.86294650787498 17.001680221692805 283.21559606644803
C 28.98190882822778 14.4401715277323 280.6500877918418
C 27.53783285614095 10.9363466280832 280.37941108137085
C 29.45469349011029 8.050469617076898 278.8263964543313
C 27.713008079923046 4.7351561696808115 278.10661568517736
C 29.881588132311144 1.9778146668262397 276.6567363100233
C 29.344451282062934 -1.582568162228836 275.5217606575484
C 32.473485640205226 -3.742768000365938 275.56681663315396
C 33.24088858824808 -7.454603948137276 275.94623651683975
C 37.04503558965622 -7.563546782969751 275.7264443657976
C 37.514805579044655 -4.066362334398197 277.16948582945
C 38.7446844609418 -2.128834984374996 274.1292227775165
C 35.746140993723 0.19747089871228973 274.1646140166517
C 35.917943551716654 0.3760632671409389 277.97327176403826
C 39.54223055373088 1.5084919208208287 277.76448178240486
C 38.53432895170084 3.9826210514231404 275.05220380109984
C 35.758438661162046 5.424077996655176 277.21754183829836
C 37.991672635716625 5.63307334501847 280.2994754859443
C 40.566670359370335 7.538304023220009 278.2408524290264
C 37.93046521997008 9.998133214517859 277.00995947091695
C 36.65028795279703 10.220396617477958 280.58779603815253
C 39.87812564368805 11.652397429375215 282.0148388704261
C 40.37936846421554 14.22338218294761 279.2402352686198
C 36.89624943615998 15.614742261834754 279.89557000342444
C 37.42598717995853 15.399253597277328 283.6619556591486
C 40.48495955891971 17.649067695119438 283.34155949849
C 38.62641392434982 20.040856180750197 281.0275121077018
C 35.94823665270462 20.86590429860182 283.60982406872427
C 33.175512278782456 18.31544237505351 283.0452764046805
C 31.50781613043157 16.346765524241835 285.8271998099725
C 32.00359640931263 13.010985285594957 284.05861760434044
C 29.701765241469285 10.035763996453557 284.7275139597202
C 30.85012506673267 6.79153375385594 283.0833753886484
C 28.516177113942234 3.7816078720636277 283.055230761933
C 28.45821125501252 0.344209116322606 281.4575556765885
C 25.514924561467584 -0.17029196035556643 279.10094945836
C 24.522981027498993 -3.3549042673614915 280.95476405525386
C 23.712910440718627 -1.3442713122417296 284.1075589394836
C 21.49917913511931 1.4702095916224616 282.7552035059173
C 17.810538406303472 1.9141425976339126 281.9970648018975
C 17.00888915581487 3.767732554831073 278.7829767774678
C 14.073850832077943 5.790216816705694 280.1210582916495
C 15.230989964740578 9.338181568376955 280.80361782211685
C 18.864771120455902 8.218925363237574 280.80856109258065
C 20.282882421643222 11.382654707410586 279.23042844070574
C 18.40031500914291 13.770821155563173 281.5254274309804
C 20.592498910858907 16.087855177036904 283.5720191559874
C 23.52068299226037 15.742623967038615 281.15541415860486
C 24.29029794421298 18.195864000597854 278.36210117279836
C 26.961059755134706 15.973654732518716 276.8081784718768
C 26.38706973920494 12.27154052758916 276.13271574474004
C 28.956820979347775 9.945320000145008 274.5653088359815
C 27.774806588207856 6.518588463221558 273.44703395284597
C 30.44006422746671 3.909578359055887 272.72175015325536
C 29.863995671159728 0.4567720515700091 271.2904478294586
C 31.908505254005455 -2.244968673466328 269.57697690519916
C 30.753919918795052 -4.1067859265547035 266.46678852856076
C 30.18188408861911 -7.8762227112511525 266.45355958759427
C 28.905980002200966 -8.722376473661765 262.9855978027645
C 29.742054847493133 -12.42542353260778 262.68428537550557
C 28.25359117423528 -12.507592983490937 259.19130445129576
C 25.936454743640358 -9.491905500022112 259.5863480815423
C 26.242504631561264 -6.27267216757787 261.61159547217295
C 25.53912179284099 -6.402540744789549 265.338997953094
C 26.035420178424747 -4.135848740028073 268.3300620318862
C 27.819351117157932 -5.344729078411362 271.43616201844947
C 25.198553272368212 -7.308739404668918 273.3131675362312
C 25.063914833845388 -5.133724198974773 276.4299869510936
C 24.222985772387716 -2.107052290672722 274.267598326799
C 21.284731951692667 -3.559283875160088 272.3192418240649
C 18.625157900539296 -2.9636311344251935 275.0386859808273
C 19.627833331379687 0.7052300824473356 275.1092036863244
C 19.747698882013438 0.9070662600209726 271.3219259671722
C 16.27236025310624 -0.5998448814763092 270.98341193132444
C 14.781860870866055 1.970012209808285 273.38759148433707
C 17.005796460892256 4.903848423094155 272.4577901739099
C 14.02932858325576 7.196370814049887 271.7909372864989
C 13.250415573244407 7.106497293795068 275.53802854902744
C 16.623046655805812 8.543505253725664 276.58332379846405
C 15.895299378442738 12.212363827464113 275.8772532248127
C 18.30698898909484 12.561390710026917 272.9404545947217
C 16.340755582059202 15.167505532537133 270.96896866537315
C 18.082052336364562 18.524372405112192 271.1547502170972
C 20.899156748952898 17.123133773832034 273.2779977528621
C 24.595960984295 17.140597236857133 272.3762412780277
C 25.90304141099459 13.634216450770575 271.64183764534215
C 28.798353006319644 11.881566494105773 269.9365592798253
C 29.697391161474197 8.259831281462452 269.3143668962415
C 32.81530584171061 6.1201513043122375 269.5178162914719
C 33.5405940113561 2.4390449254391555 269.0935529328628
C 36.186048618196594 -0.23054271244965058 268.5818202299314
C 36.23667269181948 -2.387014818468164 265.4686985594716
C 38.54552170939932 -3.9474135804813373 262.90073870373107
C 38.843256035634816 -3.0452607805940985 259.2305632829599
C 39.073575183651776 -6.647753072106368 257.9833603014378
C 35.30473029278805 -6.909645918382503 258.4922863662289
C 32.9508735925065 -5.648304231020627 255.82219629501006
C 31.383497147943434 -2.923723193730674 257.9829337004693
C 34.179902679883355 -1.3182100014322755 259.98700659327096
C 32.627918936441624 -0.03203498538738636 263.2215658642255
C 29.142001328801793 -0.5172574094993819 261.8069029566588
C 27.87083016790594 -0.11341523134723099 265.3699779995872
C 28.760738344761013 3.5832694095235595 265.5949880838031
C 27.161798172104348 4.089961150276022 262.17440449063076
C 23.917344643813223 2.5434662808972384 263.4153459442395
C 23.962232713890767 4.549307993662895 266.65128299307406
C 24.697643716477664 7.8513447368914715 264.9004284813954
C 21.960080329053312 7.303301104202311 262.3031100647366
C 19.409733138246494 6.652750110013975 265.0449963375569
C 20.667730143453152 9.664000709971658 266.9987191584921
C 20.1741395928942 11.775156746151083 263.8687766266328
C 16.675277127814798 10.366851496729845 263.40380661382306
C 15.91576911571517 11.32149066990135 267.0223166420302
C 16.91502084730249 14.95917662921253 266.5629967948441
C 20.027539711178516 14.793868290732686 268.71622836559436
C 22.654466401935036 17.484927143499842 268.1309776593883
C 25.65606609857932 15.426722462844042 267.02025311497835
C 28.664999685428246 17.554506869066532 267.9162855126962
C 31.147313229463272 15.830269240648658 265.59409231306086
C 31.8462888215079 12.67147069457174 263.63622256304456
C 32.23088510200026 9.395258672688719 265.4504205698874
C 35.49402474182199 7.94451417546675 266.7117482234054
C 36.240709105437205 4.648725789555593 264.94008729175204
C 39.18872797428006 2.752021554843414 266.4238885745815
C 40.86114050979435 0.08464142895039768 264.29187685365025
C 42.633857979189386 -2.7339855891314846 266.0816282109787
C 44.06266267331393 -2.131341384741658 269.5334210875523
C 42.92005956991564 1.187456612631592 271.05648993411916
C 46.09129898328381 1.4851244689932153 273.13454004619524
C 48.06455699620201 1.7392713758735323 269.8676778848065
C 45.79858005332752 4.612156137261393 268.7096063512042
C 45.68654242028048 6.703067696020552 271.8965306316891
C 46.61560961115478 9.978871698258006 270.1702908253412
C 43.36717696006381 9.832560030735996 268.1887395867832
C 41.2000265482645 9.006914901864896 271.2145433324057
C 42.633355709963176 11.971378899418207 273.11627530119466
C 42.42276434382474 14.147107444757937 270.00823005202614
C 38.77436807255319 13.207684408977089 269.4982683650581
C 37.96144196254709 13.870277602534932 273.15910424973424
C 39.56305759928071 17.29589815605135 272.75487829714734
C 37.2631226452394 18.135504424895245 269.84660383352394
C 34.17341120422095 16.84830961361506 271.6746774141072
C 35.233113486591265 18.923923925409547 274.69353135227306
C 34.12150176922305 22.12272473828845 272.9653476323549
C 30.471259486344238 21.04750332782697 272.90022675398365
C 29.85835376682461 23.325963041560446 275.90254080621287
C 31.69875132963399 26.68392756926725 275.78927052300185
C 34.751816287439894 27.119347414092168 278.0105700233958
C 33.19565820126416 30.078018994176873 279.8365424546299
C 30.165915441578296 28.042541852964366 280.92202779118486
C 32.27786966901748 25.165818286227836 282.2388306117369
C 34.74858752758734 27.557276962280184 283.8652773291821
C 31.956866240976378 29.49283818029098 285.57938976484473
C 30.600444128300158 26.19630080307237 286.94224299131974
C 33.87645149606393 24.913209525885108 288.3720158479703
C 34.552284905139274 28.359579517584226 289.86008089225527
C 31.107486885390752 28.24468237912879 291.45993275449644
C 31.613569064228862 24.624180142822617 292.554483678647
C 35.05789407042993 25.405418392045934 293.9864405964272
C 33.80268832490864 28.358984380520965 296.03714395865563
C 30.9771942356348 26.410622684680305 297.67735667669996
C 33.47508547833568 23.737897709168937 298.71281293112526
C 35.78960535630072 26.32314214575472 300.2953284463448
C 32.76082789145848 27.735962901381992 302.1117096040455
C 31.393878718017245 24.415198589504783 303.40004507617033
C 34.83820212503643 23.40678069324281 304.65919075337376
C 35.16049264828852 26.77621651478701 306.3969310216103
C 31.784441443659084 26.354563089466247 308.11449872458286
C 32.617017994630345 22.800619425627943 309.19453752484964
C 35.94003144689897 23.71559353881135 310.8007319987755
C 35.48141483151365 27.233501815179782 312.16555674725447
C 31.727614889640307 26.996368847555193 312.71970517185264
C 31.858935666353915 25.000291612453 315.95954018725945
C 34.38608017171335 27.3969273177681 317.5049148774048
C 32.112657065090964 30.30886199578002 316.59305798930444
C 29.21431451876541 28.53613883562769 318.30216988562887
C 31.394520076787057 28.24024478514912 321.4071862625371
C 32.06600217307629 31.982616636789256 321.31345639000835
C 28.323232828575595 32.57786924744026 320.9687961893648
C 27.772100617662797 30.503352724972196 324.109002492332
C 30.34274163349521 32.70997916935843 325.8528414914738
C 28.901998790375515 36.15338094303802 325.10604479617814
C 25.165608532283844 35.712682021847456 325.68091547102676
C 25.17305306609807 33.30106579728957 328.613442590826
C 27.788227943238038 31.456362171908914 330.639245561574
C 29.8480091499277 28.457981483473063 329.54393254169906
C 29.39785403758176 24.821185492813665 330.5247986193041
C 31.993238208104074 22.37378339495136 331.7812658242028
C 31.25895302031855 20.380060682802487 328.62042864522175
C 31.674746400896822 23.274877892328643 326.1821437678915
C 35.07873457090106 24.107179919198433 327.69440513606844
C 36.1410708740889 20.520083671681917 326.8946631592395
C 34.96811636961477 20.230796720396103 323.28239206319773
C 36.63992217722913 23.609517191538213 322.72196967986235
C 40.04279091454804 21.901269312348344 322.85983625899814
C 39.011984451355886 19.780346183539223 319.8645711321419
C 36.96399899866825 22.425893178053368 318.0567154178528
C 39.99272248445536 24.726589045460674 318.04524654828384
C 41.96290844417485 21.94282458745184 316.3464506290267
C 39.27905096103912 21.877569126103914 313.6597487901036
C 40.23282501400997 25.498243650642962 312.98859140457716
C 43.76989186274156 24.378275166657886 312.1081532156732
C 42.884500982350794 21.616140180412604 309.65576485704986
C 40.84169870619074 24.13075569534772 307.6760926719015
C 44.18133102766776 25.740990758336793 306.8212420918818
C 45.56170204223761 22.3031765121471 305.88167542520813
C 42.84872009055022 21.0974059972453 303.5075277524163
C 42.52445887979835 24.413180482247277 301.659008498957
C 45.913853029251584 23.916343449871835 299.9394106802291
C 44.656167920017495 20.393530691245832 299.2128787005496
C 41.46328839855048 21.816369350749092 297.6959716348226
C 43.421284776213895 24.229263484431286 295.5027275122562
C 45.504566627243584 21.34852008664972 294.14940175319595
C 42.55349854174845 19.13856023339348 293.2119397439546
C 40.447999747818244 21.76517004383778 291.4112411335501
C 42.8516595856905 24.385993073633433 290.01415897278315
C 44.203616653100724 22.582969064539874 286.9503353431653
C 46.44327329206288 25.57384794560875 286.1559161130656
C 48.11110965474924 25.472052399269742 289.58035535632865
C 49.13118101948769 21.846542098461235 289.02804025915384
C 50.92886134700901 22.805663069197884 285.8158488277996
C 52.638909053245364 25.797865120280107 287.43925797115094
C 53.77105422259888 23.3618584103225 290.14139434330724
C 55.19068577530984 20.91367366944137 287.5920657616868
C 56.87431397974422 23.891947430836872 285.89599769848485
C 59.23784336714771 23.905913179127907 288.8857076837793
C 59.39614197268601 20.09325220503168 288.6340505502008
439
Mode 10 - Frame 28
C 49.20482399291902 36.08110901377815 337.408314924175
C 50.626302842453455 33.89493388503627 338.74941330799703
C 50.45797732663355 30.653984595483657 336.80455065841096
C 50.23674908255187 33.02605469543566 333.8360266194845
C 47.49661520092976 33.95000605576123 331.3822804945545
C 49.0115734145399 32.20773416257185 328.3642289844613
C 47.89453607761946 31.386041771095677 324.8370493495066
C 46.976274127545636 27.71162280656495 324.3653565524297
C 46.682404568203445 27.209874917433524 328.1479761732361
C 43.33457475672644 25.420804224147926 328.1307992586372
C 41.557884179731616 23.366550046810957 330.80399242763366
C 43.1299997007977 20.115933874034617 329.48577579533213
C 40.9488004014454 17.463415923620015 331.0948460773531
C 43.18071324564027 14.388248000243806 330.74371578862883
C 41.765836341674756 10.896906924489008 330.2299756070582
C 45.249212678736335 9.434919672292859 329.6517452599388
C 48.820188445755015 10.564144785714713 330.3358332979554
C 51.63658395090797 10.978107863643732 329.3476466131978
C 51.20834893991254 9.232790365495678 325.99372603973507
C 48.484273930138116 11.759600375565645 325.21722025212085
C 50.73548179878487 14.612783325351796 326.3415300291047
C 53.66694127485538 13.206719057309503 324.3681279330266
C 51.83272819224893 11.830099460698632 321.32659639673875
C 49.35135204937118 14.701911963271696 320.96405652930747
C 52.23145086822188 17.162821831957768 321.286699380522
C 54.30587041543644 15.66779786624875 318.4629012263394
C 51.14814813209332 15.02639751610183 316.4351345348565
C 49.81872894358694 18.57625725812906 316.78187198448677
C 53.23237236751357 20.141291938545134 316.1676972551066
C 53.777705384373334 18.032108183621812 313.0410196468938
C 50.30560027667575 18.91931692604776 311.7583883162618
C 51.03192185238912 22.609119640673313 312.2875573453237
C 54.42225098047084 22.651158478365492 310.56727124922276
C 52.96107448302983 20.686261270363 307.6508019154301
C 50.359265428823875 23.431589275321855 307.18939658432254
C 52.91628334284245 26.249082037678793 307.2749075181324
C 54.97563317087223 24.539344535411022 304.5739355311935
C 52.06716281907073 23.52012589153526 302.34882895541097
C 50.5512846579565 27.01120378078498 302.5050969823231
C 54.03993414484535 28.404686111758398 301.9365035698791
C 54.12289186385259 26.12736649480169 298.8850278767801
C 50.914226870574815 27.686680461537986 297.537710433536
C 52.34156387707748 31.1668173190138 298.1206594267565
C 55.4300666887949 30.125145067603185 296.14504455008534
C 53.9201466385448 28.8352365096542 292.89125213376667
C 51.719683258926295 31.936138987951082 292.61818519411565
C 54.43625388398412 34.55443331053082 293.117722391129
C 56.80702783803804 32.36856656835106 291.0830249243049
C 54.74469977633151 32.23247290545747 287.8783137419277
C 53.50027328426168 35.29700124107207 286.00867851101145
C 50.621977006975804 33.466158163359964 284.30793877311464
C 48.92062610733564 33.364770883427816 287.7401358510505
C 49.89591348115168 36.592969970995924 289.5352775005733
C 48.18084947103502 38.46522984337684 286.68297612297374
C 44.920909885609824 36.52790221787029 287.15831475871784
C 42.365660772602126 38.093012899380405 289.5480481421366
C 41.263996131167694 34.59450808371592 290.605094507918
C 44.69268018292161 33.843122535443214 292.1042044869323
C 44.65469597093968 37.067240655233405 294.09438444220064
C 41.842881666425164 35.18879541766906 295.8705300691199
C 43.717545103622335 31.91675785742051 296.4564705641681
C 46.92785432164087 33.68780102467834 297.44497997425594
C 44.940572849834574 35.81092939214859 299.8907031739303
C 43.41552185979738 32.68317281493705 301.44202398948727
C 46.73993699464088 30.844081589089466 301.5465857038979
C 48.53916615476121 33.728008089289965 303.2647188502711
C 45.60818795047935 33.908671278997325 305.6850087036305
C 45.885568912110884 30.165656703689642 306.3262869037965
C 49.64145830169466 30.641352086493264 306.7336554973388
C 49.33832117037066 33.581228812936274 309.14523023945003
C 47.30828331200978 31.352178555691665 311.45433859731475
C 49.303263980686054 28.14931945789073 311.0215403517189
C 52.48485079203443 30.10825485984239 311.78094576053036
C 50.97845436458868 31.522745493414913 314.97831467880593
C 49.865565974522 28.01357766885255 315.9129298394157
C 53.31936135182414 26.446197499910753 315.6364439109758
C 54.94945983849302 29.482566811046016 317.246580119186
C 52.63228308074586 29.56823144338655 320.2654257461413
C 52.715409607414266 25.767901611136065 320.53702011942147
C 56.518052421004256 25.55144883641906 320.6731618644135
C 56.70394207153714 28.726645208122235 322.7802738628378
C 54.50476450353415 27.275557089415447 325.55506017471487
C 54.410266456851 23.46352081226309 325.32840290554367
C 58.20927157582879 23.256418744140486 324.92237202425025
C 59.7006952294057 26.34695341338369 326.585248596284
C 56.79210215212302 27.0540392838989 328.97423452212655
C 57.39102848226719 30.789639756614662 328.57485050127934
C 54.87508028699405 33.319803322530475 329.87239962630457
C 52.69996499967644 35.6935741235944 327.86275907490835
C 52.186573665915404 39.30565020556183 328.8920057378793
C 49.02002089082385 41.17672788778306 327.8987916955599
C 50.28615198091479 42.44875588819011 324.54085674065976
C 52.15162675430285 39.2843225700009 323.52388839558563
C 48.970825130143375 37.3122370297628 324.2274026282314
C 46.60892375152278 39.55188877360067 322.2459573164441
C 49.04914076471383 39.69449292861018 319.3277205168263
C 48.94250726689405 35.89876182782457 319.0512216210367
C 45.15559525382156 35.82796373199583 319.40354360973555
C 44.754925256247645 38.79556043836278 317.06505133673755
C 46.84514899743122 37.0359825582256 314.4399770336803
C 44.50398568438101 34.046484551154975 314.5399932595855
C 41.5447420782824 36.434008607636656 314.5768264786781
C 43.00916287900036 38.24935849628797 311.5629900368578
C 43.558006528691834 34.95542643319215 309.72880404058674
C 39.857137291193915 34.091660541277506 309.8963605438914
C 38.7608492365174 37.66976060912199 309.2236253205109
C 40.73825768111798 37.86227747914382 305.98178295508865
C 39.43518591658322 34.399541322226604 305.0723434566952
C 35.833861198140546 35.59946997021674 305.36609830327626
C 36.83222508639957 38.893612071504336 303.7561067039542
C 38.274095853151785 36.966791641834675 300.8111249977331
C 35.099524009221746 34.90916178530958 300.3496928985977
C 33.22950423577807 38.22184795066154 300.38380113478667
C 35.32253676979809 39.69883030980671 297.5687283653884
C 34.89508764992857 36.47561255850718 295.5992194541165
C 31.114309297144732 36.81344886949017 295.8509494083501
C 31.412917436408218 40.326047510527516 294.3999932767476
C 33.51264727978639 39.05588397832987 291.49423599698684
C 30.881292664506272 36.42067754501386 290.73525036204813
C 28.109043240191426 39.01095190670479 291.013382584452
C 29.892217891633152 41.08876350164738 288.36426490564463
C 30.35752065615392 38.00214645538618 286.17737790290147
C 26.629233282542828 37.25493291626763 286.43952138227604
C 25.280387741960688 40.78271942754003 285.9446700502906
C 27.940949230906877 42.05067851522463 283.486888532689
C 29.08442238297588 38.95440605759058 281.57236454817485
C 30.080979280713063 40.966180713791836 278.4994942034489
C 32.346893586100094 43.536804152905326 280.18036818808173
C 33.407046404992876 41.41505357271602 283.1767816979559
C 36.98929290536767 41.00349271260347 281.9442182181552
C 37.538305041114334 44.770417184194066 281.74150532465364
C 35.81688656559355 45.54378003182031 285.0695114126066
C 37.61183444421433 43.08983601244212 287.379160868947
C 41.281384177259454 43.678195028205685 286.5537039667634
C 44.60254890368121 43.00884306389558 288.2523761849214
C 44.91937779442708 46.56672656640386 289.6544808617707
C 41.27933834459842 46.49008254673716 290.7749660683109
C 41.69473558171155 43.1492059966006 292.5471352814717
C 44.87212734428999 44.21006764839608 294.3674062877518
C 43.19240118404146 47.3351675244946 295.7477817406299
C 40.15212224062545 45.38116606731062 296.93675418069176
C 42.26508034398164 42.773819825961034 298.72834682979294
C 44.71245011563432 45.28356290358706 300.21533133040555
C 41.787474664691054 47.26182774702407 301.62861521116446
C 40.120880671485104 44.1093171126598 302.9099162305436
C 43.22618961460562 42.98057164181498 304.7966400666235
C 43.709897171297236 46.36068811792912 306.46661436182234
C 40.095001723313985 46.15642650325209 307.6209699504151
C 40.75415913257962 42.581620123979924 308.74814734980833
C 43.98969929611822 43.51271567869529 310.5375143951914
C 42.375350214281 46.512695971133056 312.2214106996311
C 39.892318424076564 44.29683110731248 314.05836976055616
C 42.6461405085354 42.110172590492205 315.50101134960767
C 44.61464985916003 45.14609628822723 316.65150068984246
C 41.52207940579935 46.8394046533243 318.17359831597014
C 41.48680741914312 44.37273221099161 321.0966859565403
C 45.268303000849755 44.542702696796766 321.30839803232783
C 45.040187211861294 48.3184647676091 321.25224278990083
C 41.999383023797606 49.350204188013485 323.3125959632954
C 39.15337404017842 46.90616832906137 324.00274260001504
C 40.19722869977814 44.91490836735253 327.0805818851809
C 39.36536545420137 43.53859475094722 330.48210328938563
C 42.36963416276677 45.30724792380596 331.99829171188526
C 42.07025598547895 48.64213902115657 330.20591111875126
C 38.26149002695884 48.88632059979514 330.3600537055676
C 37.60350564085602 46.95575912032608 333.60410838522995
C 34.85770443948347 45.268007993845025 331.583029090488
C 33.3577022362183 41.79716065392206 331.86638955180257
C 35.943306261905 39.232817248269654 330.83930777815544
C 35.42950533060255 36.31381599960263 328.4658212078516
C 35.202154636799726 32.87734395955016 330.072990518807
C 37.28153870539936 31.434744739920284 327.20349386510156
C 40.00544367079552 33.93492086799462 326.3371750353643
C 42.01951752826147 35.965495750726376 328.8640740131806
C 42.16007017542951 39.759592503064084 328.5129884100987
C 39.26954607371347 39.720160318398676 325.9931366092515
C 36.29708905128371 42.06441649093518 326.30615172907693
C 32.87307132262184 40.45833251599611 326.01034438849683
C 31.392302438294692 43.37082481241773 324.067484247959
C 34.2506738216579 43.218544421298475 321.5693585809912
C 33.27329612415898 39.639607431860185 320.7157980278599
C 29.67567011130756 40.670424644767365 320.0445338840672
C 31.018245895790773 43.166190451553526 317.5060104227408
C 33.41817893833831 40.576992592322824 316.080333885891
C 30.875595969871426 37.739090151456985 316.0243288842922
C 28.16265406432156 39.927955645819154 314.52897964191413
C 30.44103338815715 41.205073998101945 311.7652942894287
C 31.546818104874017 37.76137192627057 310.58766311987125
C 28.089095396735598 36.24523342908156 311.1220758648668
C 26.468737330182435 38.85206553588007 308.86630101763126
C 29.194160048186077 38.43590129757867 306.2538211990785
C 28.91514133394674 34.639231672548966 306.33184161465874
C 25.11468092332704 34.758885138826535 306.1454980052467
C 25.450378588976992 36.8567142413273 302.99553907531947
C 28.22744961781358 34.68245797812607 301.54341055091874
C 26.10615368516787 31.56440873671437 302.03877429698485
C 23.181764787687978 33.18718599845037 300.2300986506256
C 25.44843002831748 34.58846083416703 297.51746675655795
C 27.29000085167974 31.33026619383637 296.831759961653
C 23.94974633889229 29.54652809017771 296.39738135058167
C 22.74755377132842 32.22109128628153 293.96743203961046
C 26.091425100030094 32.10940634174249 292.1294177657572
C 25.907750260189214 28.32893205791945 291.7456002696327
C 22.23721380417865 28.504216762916865 290.7202281806924
C 22.982035365094802 31.141107043049047 288.08210452611877
C 25.896842439512277 29.01143603610089 286.872833554508
C 23.479651418810924 26.169938829988197 286.0864273946376
C 20.885057461985085 28.392475610467844 284.3878476452199
C 22.835000066293922 28.542254847484767 281.1156187727445
C 24.45650691203702 25.109092937020044 281.2203934671593
C 25.214184450812397 22.26651822395749 283.5385599627808
C 28.634527147689525 20.74278038832468 282.9610616499313
C 27.855570545430446 17.016563597255658 283.20555588174904
C 28.975776544970053 14.454595553756672 280.64143623818495
C 27.533264065133427 10.95010068341351 280.3737401315412
C 29.452323754430367 8.064185789547489 278.8235021745214
C 27.713005591158954 4.7474287982250285 278.10735009775556
C 29.88387112313395 1.9901924844962853 276.6608217691497
C 29.349240571597893 -1.5716125176650972 275.5301508732736
C 32.47980443826171 -3.7295946739596837 275.5776537537013
C 33.249855435560875 -7.440249079651972 275.9618725981965
C 37.05426517613799 -7.5470533943607485 275.74140038929033
C 37.521949884961096 -4.048077649573711 277.17980880700594
C 38.750325981991544 -2.113176879336211 274.13716263354706
C 35.74979378457607 0.21087865812417478 274.1702772358313
C 35.9216571583192 0.3936008223233289 277.97873238499164
C 39.54554774017176 1.5280535708700036 277.7680296041103
C 38.53545970172619 3.998754725677617 275.05306508150795
C 35.75830354550034 5.440070923419943 277.21706692389984
C 37.991773469903904 5.65307194236274 280.29871299099295
C 40.56553982154767 7.557923549167177 278.2372016640868
C 37.927241740794074 10.014725169754023 277.0041196070762
C 36.64681105686125 10.238447531242173 280.58200651459265
C 39.87469874192673 11.672296202809598 282.00780408057625
C 40.37371064124924 14.241745561102764 279.23061423454305
C 36.88970422113732 15.631454637648451 279.88553784661343
C 37.418906708059865 15.416424509004713 283.65211273161185
C 40.477271558223116 17.665063794945645 283.3306065225163
C 38.61981804395594 20.057225449162623 281.0162657106661
C 35.94169537522004 20.880410636086417 283.59909761857057
C 33.168270066841146 18.330707030023415 283.03441062677837
C 31.500480326624412 16.36316271651708 285.8175896978077
C 31.99817639337852 13.028238842228351 284.05103493190916
C 29.697217277017412 10.053701750773351 284.7230433946434
C 30.849162489016656 6.8095424271072975 283.08171967062043
C 28.51673859619146 3.799285697259717 283.05731581107756
C 28.461534385811667 0.3604696741229837 281.46354488386635
C 25.518335999122645 -0.15788129956314687 279.107741428524
C 24.5282231823329 -3.3407649133533837 280.96530935246454
C 23.716634246114218 -1.3269387187810604 284.11570326977096
C 21.50128008626684 1.4846218932724158 282.7600691150373
C 17.812528695354647 1.9258033700337032 282.00135709780966
C 17.00984735272609 3.7752073718325887 278.7851400584735
C 14.073280741943327 5.797234453900359 280.12073231846364
C 15.227912872868417 9.346750154159428 280.7994232838136
C 18.86237747320955 8.229728992930307 280.80592411947003
C 20.27860638184593 11.392617649174062 279.22444412559184
C 18.3943656330252 13.782272919708866 281.51667126225635
C 20.58526081648257 16.10237664486201 283.5612326153882
C 23.51400423402837 15.755984578606133 281.14543000484895
C 24.28281373294802 18.20791860427229 278.350673332938
C 26.95426494704583 15.98484973971468 276.79857493223574
C 26.382427983880742 12.281538638826161 276.1260268981452
C 28.95348791977604 9.955078019577037 274.56090145276823
C 27.773942107702954 6.526415681366028 273.44609943987365
C 30.44096849910683 3.9183327443428912 272.7236752203722
C 29.8673852057289 0.4636186662703509 271.29647025562514
C 31.91389395577801 -2.238509938488901 269.5862245675671
C 30.760720987685357 -4.1046957370506565 266.47855836071153
C 30.192084395066182 -7.874614020654249 266.4709442669986
C 28.917382838676666 -8.726880787261084 263.0045108026552
C 29.75774688633168 -12.429605332899385 262.70976299282955
C 28.269426032918556 -12.519115028808503 259.217084211219
C 25.949251442526773 -9.504871375989472 259.60687809159504
C 26.25189776284833 -6.281397658124199 261.62650495213813
C 25.548016808873495 -6.406070405002049 265.35378346157347
C 26.042067158198577 -4.1349712759915205 268.34174762001
C 27.826635405648304 -5.3389601796765565 271.44935690034066
C 25.207007366522333 -7.30265930696634 273.3285168465856
C 25.0707174689932 -5.124260583696941 276.4426197203495
C 24.22791844741754 -2.1005678000662362 274.27665457994743
C 21.29066686301403 -3.5567322900857623 272.3299479780342
C 18.63065359353307 -2.959432495687489 275.04863928980643
C 19.630964851278996 0.7100875055099864 275.11499329475043
C 19.75087181477684 0.9076618873056385 271.3274930998855
C 16.276561544641797 -0.6017407705683402 270.99067748793914
C 14.784367871516698 1.9700084489639968 273.391721552424
C 17.006475191243613 4.904203129845296 272.4587788590584
C 14.02861133701956 7.194100468498817 271.789108493655
C 13.249363514208959 7.107884209667718 275.5361716456554
C 16.620876156923277 8.548277919001277 276.5801438796987
C 15.890894908324402 12.215947981448942 275.87009080623255
C 18.302680124573165 12.563426492232866 272.93323015052624
C 16.33497851971607 15.166117746102467 270.9588137133898
C 18.07402774022634 18.524257697525766 271.14127434997147
C 20.89202404670229 17.127712843418273 273.2666017682339
C 24.588888581139866 17.146573642811987 272.3653863197771
C 25.898100362985787 13.6400021275137 271.6341871962574
C 28.794240036125846 11.886936332807254 269.9305346638693
C 29.695422566835816 8.264811542523141 269.31178973915553
C 32.814595600286296 6.12718912052241 269.51725684047574
C 33.54256717303396 2.4461155082880732 269.09707883892577
C 36.190037880693055 -0.22205905321591612 268.5883439865236
C 36.242317837974184 -2.382081961443919 265.478031957415
C 38.55244543406738 -3.9438979889208663 262.91221586454924
C 38.84933753780725 -3.046412528567281 259.2408624034181
C 39.08294658360445 -6.650601295038364 257.99895825487414
C 35.31436193458113 -6.914991292953958 258.5085231296451
C 32.95922902219887 -5.65960719908922 255.83692071055142
C 31.389504383114488 -2.933049003871716 257.99373476214214
C 34.184552930632854 -1.322149554940191 259.9953210562951
C 32.63164012499913 -0.03264024583125867 263.2281679701079
C 29.146005157296845 -0.5224144336217104 261.81432528678044
C 27.874578698796153 -0.11482742395486552 265.3767611785311
C 28.762051012526953 3.58287840817082 265.59745590054223
C 27.162784393662644 4.084428787453507 262.17643602815866
C 23.919394615255612 2.537470310312198 263.4192436248762
C 23.963085088630397 4.547365016231664 266.65273591748866
C 24.696521385153275 7.848158368707498 264.89844839153864
C 21.959439549652423 7.295507901311274 262.3018440896182
C 19.409507318256328 6.646666714869302 265.0443814290732
C 20.665657136164743 9.660920308371779 266.99480142502324
C 20.171016412813792 11.768332063055045 263.8626850638845
C 16.673035639337805 10.357348671414977 263.3989378876379
C 15.91276004938251 11.31548718705693 267.01636676295334
C 16.909778114995433 14.953269876644562 266.55314119676075
C 20.022137159306812 14.792368768138376 268.70691747606725
C 22.64723832090189 17.484641566342987 268.11927984562595
C 25.650193391468157 15.42742398594779 267.0109346021883
C 28.657607343324603 17.558663000204486 267.9057249476502
C 31.140748364936318 15.833266492519662 265.5848233302027
C 31.841271566535475 12.672557785200155 263.629685625433
C 32.227840309770215 9.397951161393127 265.44659480717047
C 35.491860992847315 7.950516165849166 266.7090536105778
C 36.240798706283464 4.653122507470081 264.94098445917035
C 39.19035185463539 2.760331409429554 266.4266950602726
C 40.8647934497063 0.09183629609843398 264.2977671325182
C 42.64006209002808 -2.7232093877379024 266.0906752592532
C 44.06861892364316 -2.1158353174186493 269.54160787875605
C 42.923429422499176 1.2036409370417078 271.0606512815307
C 46.09459509217071 1.5063393923843749 273.13806992158754
C 48.06746561409908 1.7585929395090236 269.8708572850937
C 45.799017422875686 4.628124995290132 268.7094195839422
C 45.68575930832925 6.7224519967763845 271.89390304109025
C 46.61203363856118 9.997084296743557 270.1637328616937
C 43.36342623362853 9.846248354145779 268.18296745127765
C 41.197246206289364 9.021725991642079 271.20975570171294
C 42.628625870414595 11.988819234085792 273.10849004610196
C 42.41606052782287 14.161859227802154 269.9986106247556
C 38.768402351934505 13.219486311864168 269.49017722813073
C 37.955453482458715 13.884360937288257 273.15044762674546
C 39.55503138206805 17.310714403845413 272.74382712535584
C 37.25415233780698 18.147053747880157 269.8353291832573
C 34.165584088510265 16.85961092374611 271.6646121728412
C 35.22476203677313 18.937500162603673 274.68227902755746
C 34.11149062979421 22.13513025559307 272.9532278418599
C 30.46163099276537 21.058744970437417 272.8887602328212
C 29.8499283062995 23.338911193681476 275.8912855695109
C 31.691127467366233 26.696886647503426 275.779330611639
C 34.74417241697974 27.132485190734215 278.0002298421417
C 33.19052717057027 30.090025856993893 279.82836689310096
C 30.16039715787076 28.05623577546031 280.9133947188278
C 32.27113341092968 25.179427062222235 282.22902620109033
C 34.7437862839702 27.56828031132806 283.8574914494322
C 31.953211221703565 29.50274460905129 285.57280132602034
C 30.595071017703347 26.206988790428603 286.9338516516764
C 33.870460079477986 24.921769500243684 288.364002490925
C 34.54788489306315 28.363405253358312 289.8548196650044
C 31.10271664141107 28.2497085048319 291.4537931015103
C 31.606001343039804 24.629052948203153 292.5466342394874
C 35.04991822309451 25.404673483059618 293.9807605554203
C 33.79693197899812 28.357141081856838 296.03309537896615
C 30.970049986800475 26.410430886408896 297.6720105027957
C 33.46581860069789 23.73608110686659 298.70763424080394
C 35.78233447478125 26.317554033014076 300.2921470959472
C 32.754412519914595 27.731662072353057 302.1087188683956
C 31.386523636088874 24.412057237389174 303.3966429906782
C 34.83043940953897 23.401303914487364 304.6563598332214
C 35.1541805377731 26.76906540356628 306.39541217675827
C 31.77876114168927 26.347613245196484 308.1134210534142
C 32.611468122706924 22.79334421049834 309.19252384761444
C 35.93416941313919 23.706170169253834 310.8001985114717
C 35.476358763154536 27.224106698178556 312.1650772406248
C 31.722805218010365 26.985782613848276 312.720412020898
C 31.856491335961174 24.988805113695623 315.9609138911605
C 34.38297529444355 27.386169065020315 317.5055571333043
C 32.10845043923389 30.29781584510784 316.59365616412106
C 29.212061513191685 28.523775340052346 318.30488972237174
C 31.394051865332063 28.229388746641003 321.40928501830956
C 32.0638453756881 31.97226209775736 321.3139318501208
C 28.320696966783014 32.5658968082494 320.9703990582263
C 27.7720696255822 30.4915393841495 324.11177388927223
C 30.342205178521485 32.70012900024706 325.85381436987393
C 28.89922699833792 36.142482965409584 325.10633901642746
C 25.163264965168477 35.69984319668914 325.68278961724604
C 25.1730367207692 33.28903281714991 328.61607842937997
C 27.79000584230066 31.446702049297844 330.64163407045
C 29.85139453278979 28.44936267473831 329.5467254847137
C 29.404059362507706 24.81281186376192 330.529788940907
C 32.001481329523 22.367997765728703 331.7867282747341
C 31.267900021375077 20.372033515808717 328.6273810353588
C 31.680060825015886 23.265982973269654 326.1870277774162
C 35.08405263887521 24.10127215325463 327.6973605296644
C 36.15028959231999 20.513589515150592 326.9003112416032
C 34.974240891476086 20.223158876943348 323.2884316663926
C 36.643026330981684 23.602889502961393 322.7244431653519
C 40.04716757277362 21.896874103137037 322.8623508405543
C 39.014761405246745 19.773771168554095 319.86839945078566
C 36.96245921563894 22.41637751412844 318.0589592024005
C 39.99065183627837 24.718707151395165 318.0451706069027
C 41.95985646212807 21.933946087269938 316.34692786362695
C 39.273798953150354 21.868153276106835 313.6607502222214
C 40.22733458364755 25.48892805304131 312.98840924114967
C 43.764380841747034 24.368949861547158 312.1084140407349
C 42.877878286500184 21.605624380368283 309.6570693585459
C 40.83470708948919 24.120358323736216 307.6760641272607
C 44.17476068096827 25.729596928150297 306.8214755414455
C 45.55378534309792 22.290493393223052 305.8826994550557
C 42.83987377732543 21.08619228417118 303.5079812316018
C 42.51630906084621 24.40203623191757 301.65900588112277
C 45.90558180505824 23.902684856200334 299.9399002197897
C 44.644719520792776 20.38135451526401 299.2126080447075
C 41.45272694460856 21.8070150352155 297.695364335233
C 43.41257254776727 24.21870970449379 295.5028114434655
C 45.492687400608695 21.336039158785916 294.14927800586287
C 42.53825208548427 19.13130325055481 293.2094941575863
C 40.437527203581716 21.762037484309754 291.40870271367345
C 42.84498803711016 24.37952682295822 290.0141100062581
C 44.196342291960214 22.578050300562452 286.95084808791955
C 46.441957039942324 25.5621900860632 286.1568660066505
C 48.10676362299884 25.456327326466518 289.5820940098288
C 49.121884713427484 21.82974213447498 289.0298759683474
C 50.92305170712673 22.786053679387937 285.8189755745181
C 52.63616490188529 25.776037367000068 287.442566712525
C 53.763029045465984 23.339108668957454 290.14620117102044
C 55.18061795864051 20.887900648731286 287.5985138900072
C 56.86990501215795 23.86362594027695 285.9033908463911
C 59.231115210516904 23.87452205580524 288.89473025297747
C 59.38346949254776 20.06114061894621 288.64512363831057
439
Mode 10 - Frame 29
C 49.20784300862347 36.09132114835932 337.40278385315594
C 50.633487249605516 33.90816460596364 338.7443229737461
C 50.46923149320758 30.665724038530417 336.8013485020083
C 50.24176003547908 33.0353157230309 333.8316141397667
C 47.499247450657656 33.95489139255094 331.37872157256686
C 49.015203750101456 32.212752408828464 328.3611840718398
C 47.89769583487416 31.38797667095367 324.83506990719167
C 46.98200608228985 27.712296019622183 324.36469342930894
C 46.690516908192535 27.212869039722698 328.14749899076344
C 43.34162624410531 25.423344073712304 328.128453238465
C 41.56478441195491 23.3731247834279 330.8059514480415
C 43.13928761140545 20.12378747361169 329.4912625199615
C 40.96356286222451 17.46956739393393 331.10372025396106
C 43.21751564738121 14.40767995846109 330.7790504581737
C 41.82262058822304 10.905751357209576 330.2964683706018
C 45.31363423579182 9.459400423990422 329.7227500913194
C 48.87973355158588 10.6114904913059 330.38821956504097
C 51.69153625474944 11.025960447542463 329.38790339477373
C 51.259016656785896 9.261244963816987 326.0442094190143
C 48.52373523085814 11.772994125828353 325.26159608927577
C 50.767020211895044 14.638797216591708 326.366201249966
C 53.69776625271211 13.230320216164577 324.38957390247623
C 51.855836055971714 11.839827435406251 321.3595452800729
C 49.3673113373665 14.704887976454813 320.9923810188518
C 52.24394004270983 17.171707860435074 321.30004473422133
C 54.313755035461185 15.671318483148225 318.47565908210527
C 51.15100869894161 15.023270220208602 316.4580437662433
C 49.81935027371528 18.572709694796377 316.7970882830516
C 53.23121268380753 20.13919391150268 316.17517769134133
C 53.771005785406544 18.023745195310493 313.0512754666625
C 50.29797439806837 18.90938540913075 311.7709080680058
C 51.025116437426554 22.59977339240978 312.29363968450826
C 54.41430701852085 22.638860266869038 310.57104929216644
C 52.95028382005603 20.670491003167008 307.6577423608874
C 50.35033674468463 23.41663632896452 307.1936021894492
C 52.90832356120397 26.23339938474251 307.27641921512395
C 54.96652472349687 24.519622928165827 304.5769000236764
C 52.05730663422146 23.50099999361339 302.3523343750045
C 50.54381306315378 26.99350629739204 302.50651606359065
C 54.03361155066763 28.384308702146345 301.9382127287751
C 54.11512344877228 26.10519000464125 298.88794722799736
C 50.9082500130684 27.66728347332663 297.53931847133214
C 52.33835525899801 31.146375771398112 298.1218035684789
C 55.42710111111572 30.10112149882406 296.1479557508958
C 53.917141979053156 28.811657070987046 292.8940618615079
C 51.719838091371145 31.915051369301892 292.6195611548389
C 54.43906275616708 34.530268840047114 293.1193245836985
C 56.808480719085885 32.340915149568744 291.0859457187797
C 54.74729068309092 32.20633376098728 287.88060452406734
C 53.506494480930705 35.272070319568236 286.0103021534858
C 50.626876543674655 33.444572341498784 284.30894636203993
C 48.92423068509353 33.346307353716085 287.74055827272446
C 49.90182173056538 36.57294263225979 289.5356306797531
C 48.18972198871041 38.44654196040974 286.6824989650708
C 44.92730872233375 36.51328512560265 287.1566944061997
C 42.37218138316351 38.0812746809185 289.5450916306149
C 41.26644217088067 34.58497195295541 290.6026041611277
C 44.69430300811662 33.82937540480706 292.1026380385383
C 44.65826639729278 37.05294695443278 294.09273002632636
C 41.84342834109392 35.177652340429994 295.8678268070769
C 43.71532332197049 31.904166651638864 296.4547740493181
C 46.9269478741447 33.67176690954092 297.4440121040293
C 44.93980399411776 35.79678784598914 299.8888929525194
C 43.411844951309874 32.67037876559602 301.4400569439031
C 46.73507949650616 30.828887985139538 301.54581056473313
C 48.53566312546073 33.7123615845226 303.2633897955017
C 45.60369660737932 33.89563356561796 305.6830491302271
C 45.87942485454212 30.152626115153605 306.3256578269964
C 49.63536831378276 30.627003914783025 306.7328462410671
C 49.33278704602565 33.56938504951507 309.1426735430553
C 47.302278864253495 31.3418258486121 311.45319542148496
C 49.29678015295243 28.138409043928537 311.022253871154
C 52.47905777288905 30.09835368273009 311.77803929617875
C 50.973832790358834 31.517003947362394 314.97473904654083
C 49.86235633114934 28.007918160430933 315.91345296569585
C 53.31722939350915 26.44219031846758 315.63573808440293
C 54.94825739637411 29.48228973697098 317.23994175356347
C 52.63410002127933 29.57105128520015 320.2613069911612
C 52.72156416527716 25.77137151445313 320.5374991141532
C 56.52438158219371 25.55905070708691 320.66917210265984
C 56.70885868571609 28.738061724089366 322.77280754500975
C 54.51416738555029 27.287994339828945 325.55160895160896
C 54.4262675850125 23.47695345543132 325.3296724424543
C 58.22624786108704 23.274789578264407 324.9182795301261
C 59.71355378259142 26.36897352292102 326.57730579979534
C 56.805250619100434 27.07210677975728 328.96874275401694
C 57.39785817512494 30.807902553276566 328.5661246460483
C 54.8784628482446 33.33309786628873 329.86633832066616
C 52.69949327917163 35.7025812392773 327.8565220601159
C 52.1833602627612 39.314620130119216 328.88418165779234
C 49.0146335520404 41.18126037164024 327.8910722457163
C 50.27923407229347 42.45229702521151 324.5321278354342
C 52.1469209108603 39.28905318522898 323.51563284619465
C 48.96797763350797 37.314565311087186 324.22182868486453
C 46.60358389731498 39.550476655260674 322.2401122250032
C 49.04320599830983 39.69278548135658 319.321013520667
C 48.9393263215537 35.896922934647975 319.0462249890656
C 45.15237129785761 35.82358199355041 319.4003448989348
C 44.74909583678307 38.78942052301378 317.0606267744923
C 46.83969903633299 37.02865863874448 314.43607762267897
C 44.49910438525511 34.038426412916934 314.53804123569006
C 41.53949103135066 36.42520546532197 314.57397832283885
C 43.00419496188138 38.239895488305365 311.5595730992197
C 43.553115040247675 34.94495255622775 309.7264556828556
C 39.85218188215475 34.08156105502994 309.89374015081535
C 38.75701229656522 37.660101036442335 309.2198978373536
C 40.73617640012345 37.85187641534256 305.9784672451701
C 39.43167322711717 34.38950011379223 305.0692425866456
C 35.830996070396814 35.59141895957439 305.36213961209444
C 36.83162622777925 38.885491597531846 303.75263273597403
C 38.27404899728411 36.958094558848444 300.8076420872104
C 35.097801368842035 34.903705573116575 300.34544355156174
C 33.23023540975779 38.2180116392739 300.3804765380918
C 35.32667384810045 39.69402496238775 297.5659281702394
C 34.89651129314776 36.47238014349891 295.5952015408055
C 31.11562459262117 36.8146959378585 295.84706350143074
C 31.41882375237504 40.32797960478075 294.3980412444628
C 33.518196826631744 39.057407182276066 291.4916764861371
C 30.88310492021299 36.42670112701963 290.73121734002206
C 28.11391040012719 39.0197743507822 291.0107514172953
C 29.900910314377143 41.09767804371296 288.36315775249204
C 30.361176781581598 38.01234028739724 286.17426019452313
C 26.63205222532221 37.269141770163024 286.43584470721515
C 25.28850830711702 40.79947678957948 285.9433648504012
C 27.951239472101484 42.066478217013916 283.4869430212215
C 29.089104206657087 38.96985011506151 281.56974219768614
C 30.088321854454446 40.98271258541002 278.4982749627188
C 32.35965517664189 43.54716531253628 280.18067703651377
C 33.41631148520279 41.42138217091456 283.1754219213715
C 36.99794865917013 41.00325186004806 281.942156227829
C 37.553798478439305 44.76923559276343 281.7407694772509
C 35.83405105529058 45.54388755880016 285.0697502486368
C 37.62511377476912 43.08453904770302 287.3771269126172
C 41.29586127108101 43.667834268871985 286.55140452808956
C 44.615967814929874 42.9942548878478 288.2507258054505
C 44.93776864598722 46.55121767838517 289.6537569725518
C 41.29725965070401 46.479776771686275 290.77253850661555
C 41.70659675008647 43.137862216184544 292.5446250033573
C 44.88428583718278 44.194880859071155 294.3667188525284
C 43.207358794145385 47.32188723157641 295.7459331134826
C 40.16330556893592 45.371308294625216 296.93247487714797
C 42.27188468529294 42.76168715781873 298.7257331405756
C 44.72054019068632 45.269111678219566 300.2146805365594
C 41.79555273943495 47.250668866236005 301.6244038400534
C 40.12484964042809 44.09938550452128 302.9045800528138
C 43.227563414462054 42.96904912315754 304.79437186423604
C 43.70994743702143 46.35008632169258 306.46386989500263
C 40.09304556209665 46.14693025144545 307.61414102370884
C 40.75017070622752 42.57202922461048 308.7431870238197
C 43.98446916237907 43.503566899045325 310.5343299653276
C 42.366868914194534 46.50404565482744 312.21583281072435
C 39.883852663986275 44.2876259027259 314.0523230541827
C 42.637761718846185 42.102266947892154 315.49660633425924
C 44.60455559464877 45.14018326325094 316.64587881104745
C 41.51079750672702 46.832363230924194 318.16695105521904
C 41.47761379403733 44.366997157782116 321.0909735138805
C 45.25886712068571 44.53991504921777 321.30184867617004
C 45.027874954578635 48.31579342688415 321.24430283174473
C 41.98648621812179 49.34619373722705 323.3044833634939
C 39.14292577447534 46.90022008838556 323.9965136386397
C 40.18880679958997 44.9110425224918 327.07492031569274
C 39.35883202319943 43.535371040803184 330.47716450144026
C 42.3619917196316 45.307126731285635 331.9917943283178
C 42.05937659871693 48.64109340408081 330.19813329130454
C 38.250496233769816 48.8822532434721 330.353183836855
C 37.59494836364312 46.95245506154746 333.5981894468794
C 34.85002764300177 45.261649300082766 331.5786154028703
C 33.35295949497347 41.78974967597461 331.86375497879794
C 35.940223573773665 39.22704062631283 330.83671317853845
C 35.4277918208867 36.3070623286262 328.46395328795404
C 35.20305670514405 32.87130986547475 330.07201749409063
C 37.282741859306924 31.429492391900887 327.20178596006315
C 40.00522679133251 33.93104891244874 326.33513415406895
C 42.018775715372776 35.96378692393855 328.86110485512415
C 42.156125233974635 39.75783638085979 328.5085946082636
C 39.26487966933942 39.71519365297786 325.98964802267375
C 36.290690734237806 42.05736928195927 326.3026557514794
C 32.86765933127758 40.448882207951854 326.0082207223601
C 31.384333322231974 43.359667366152415 324.06480338466037
C 34.2425231623762 43.20850169794572 321.5662503177365
C 33.26728541344362 39.62855624766816 320.7139414390308
C 29.66898775486302 40.65701866382272 320.0428064165697
C 31.010304419383427 43.153387780910506 317.50405000898525
C 33.4122255115328 40.56477547085127 316.0787041834425
C 30.870416345070762 37.72584768077776 316.02270162677377
C 28.15744604122812 39.914290095788296 314.5270342747409
C 30.43710642941368 41.19379474247273 311.76417277260964
C 31.54348521269638 37.75043586420586 310.5853836483716
C 28.085626956059738 36.233876238853995 311.11861697194854
C 26.46642158247839 38.84372339505166 308.86370972275927
C 29.193104152473747 38.42959476012055 306.25146445376697
C 28.912139267500187 34.63276363799238 306.32703074109236
C 25.111415089564208 34.75503064875925 306.13938860905927
C 25.44970469373741 36.85636509895172 302.9913649216709
C 28.2257633421638 34.68125644540979 301.53832156440956
C 26.101679091969864 31.564208934067857 302.03106335208156
C 23.1789467882371 33.19149454420631 300.22271798173114
C 25.44773098800038 34.59361269146647 297.5118614653603
C 27.286578627435414 31.33404670800305 296.8245448539883
C 23.94498203895045 29.553602389551724 296.38790717074147
C 22.74532775264439 32.231800916292165 293.9598884002777
C 26.089261979698552 32.118984303880715 292.1223699336104
C 25.902495213698398 28.338741864077825 291.7360190756579
C 22.232220993319917 28.518286864139146 290.7098512154385
C 22.97957392907319 31.156697267709376 288.07374332570356
C 25.89251999243552 29.02539895007784 286.8636271536596
C 23.473467029516524 26.186100111891598 286.07497538828494
C 20.8806299055369 28.41179630604701 284.37765669700786
C 22.83011173686181 28.560216969459585 281.10553970419653
C 24.448926672838223 25.125178886828905 281.2084692158632
C 25.20578418083299 22.28239628087921 283.526065493777
C 28.6259593572976 20.758530291516767 282.94832194134693
C 27.847470370636298 17.0329083040641 283.1945298967825
C 28.969042160589932 14.470435809575662 280.63193522765397
C 27.52824668522712 10.965205187150023 280.3675123768292
C 29.44972134513563 8.079248690877842 278.8203237184841
C 27.713002858034386 4.760906420588116 278.10815661897897
C 29.886378270486887 2.0037856240291068 276.66530836100634
C 29.354500099783493 -1.5595811879754307 275.53936488628494
C 32.486743650484016 -3.71512791829039 275.58955492203813
C 33.25970269700401 -7.424484771637624 275.9790439155721
C 37.06440097391925 -7.528940594616268 275.7578248769999
C 37.52979565792174 -4.027997674350423 277.1911453509794
C 38.756521418444954 -2.0959813758730386 274.1458820680848
C 35.75380522642096 0.225602864714268 274.1764965008557
C 35.92573538713659 0.41286031062841955 277.98472915958735
C 39.54919062612706 1.549535890750523 277.77192577036243
C 38.53670147497581 4.016472492344104 275.0540109271389
C 35.758155163443696 5.457634123238097 277.2165453798072
C 37.9918842045434 5.675034111414496 280.29787563011536
C 40.56429828133595 7.579469427518016 278.2331924470707
C 37.92370176279564 10.032946213936418 276.99770635345135
C 36.64299278025903 10.258270782483438 280.5756485439329
C 39.87093536820054 11.69414874669382 282.0000785765688
C 40.367497302267935 14.261911956198489 279.22004855470016
C 36.88251636109228 15.649807925959548 279.8745206777569
C 37.411131036690136 15.435281354794334 283.6413033715951
C 40.46882870755403 17.68263047937377 283.31857812343344
C 38.612574543936326 20.07520194191051 281.00391508083607
C 35.93451183932211 20.896341285155156 283.5873179868521
C 33.160316774906434 18.347470452337223 283.0224779873508
C 31.49242425346239 16.38116987484543 285.80703601224985
C 31.992224210624954 13.047186447453038 284.04270775121074
C 29.69222276853194 10.073400731956804 284.7181338850271
C 30.848105400153838 6.829319290431039 283.07990138513736
C 28.517355207840005 3.8186992280559244 283.0596055817553
C 28.465183799774834 0.37832678245613893 281.47012214428395
C 25.522082390391997 -0.1442520921904988 279.1152002714802
C 24.5339800406103 -3.325237280206767 280.9768900446529
C 23.720723675097958 -1.3079043164609556 284.1246472549668
C 21.503587320293164 1.500449273553759 282.76541245628243
C 17.814714401874525 1.9386090608683986 282.00607083481924
C 17.010899630652727 3.7834161072649906 278.78751574224435
C 14.072654677240104 5.80494112111106 280.12037433944687
C 15.224533655280261 9.356160050576145 280.7948169027898
C 18.85974880457996 8.241593382097198 280.8030282339115
C 20.273910497065433 11.403558807071066 279.2178722376775
C 18.387832114608866 13.794849080715512 281.50705536497844
C 20.57731204639789 16.118323909850865 283.54938699321553
C 23.50666971877103 15.770657008118535 281.13446555225005
C 24.27459468087199 18.221156794890977 278.33812344523403
C 26.946802987521707 15.997143933969447 276.78802846452805
C 26.377330475621942 12.29251841932803 276.1186813039944
C 28.94982760217907 9.965794134746885 274.55606132855655
C 27.772992747772165 6.535011418613724 273.44507317130467
C 30.441961557084205 3.9279466830760748 272.7257893011113
C 29.871107543347556 0.4711375190625065 271.3030839965437
C 31.919811749774315 -2.231417049573099 269.596380216024
C 30.768189822730648 -4.102400321304849 266.49148381938033
C 30.203286223410135 -7.87284738001276 266.4900358693452
C 28.929905268026975 -8.731827359014465 263.0252807843556
C 29.77497965540074 -12.4341977252239 262.7377421420205
C 28.286815644666124 -12.53176837157701 259.2453951690228
C 25.963304591325656 -9.51911031260074 259.62942385036246
C 26.262213163158687 -6.290979865072973 261.64287832642196
C 25.557785186248214 -6.409946626566378 265.37002069217283
C 26.049366774814853 -4.134007657734907 268.35458056311217
C 27.83463490543788 -5.3326248589000445 271.4638473279303
C 25.216291529896193 -7.295982232004706 273.34537323621277
C 25.078188024079733 -5.113867778891954 276.45649284400986
C 24.233335439470412 -2.093446626692795 274.28660002558036
C 21.297184496401172 -3.5539301764281084 272.3417053207779
C 18.636688883734077 -2.954821611626105 275.05956986911957
C 19.634403840935803 0.7154218569458091 275.12135135860893
C 19.754356283439325 0.908315996536025 271.3336068441485
C 16.281175341967245 -0.6038228084245851 270.998656416655
C 14.787121023208012 1.9700043188594392 273.3962571331929
C 17.00722056305447 4.904592663646005 272.4598646187242
C 14.027823667623553 7.191607207999586 271.7871001399236
C 13.24820815826118 7.10940730052911 275.5341324213504
C 16.6184925465848 8.553519190666787 276.5766517391104
C 15.886057983231252 12.219884047282324 275.8622251422078
C 18.297948192157246 12.565662158674364 272.9252963708719
C 16.328634233783497 15.164593699202516 270.947661692659
C 18.065215245333537 18.524131727320892 271.12647534847946
C 20.88419101671888 17.132741511110385 273.2540868634829
C 24.581121770747046 17.15313684500277 272.3534655623338
C 25.892674175849052 13.646355873655189 271.62578558422297
C 28.789723232014737 11.892833411652957 269.9239185181557
C 29.69326068480488 8.270280792863742 269.3089595426862
C 32.81381562347293 6.13491794803477 269.5166424595198
C 33.5447340705213 2.4538803196470504 269.1009509377377
C 36.19441883080824 -0.21274242190116197 268.5955082812321
C 36.248517255465174 -2.376664769527424 265.48828175943527
C 38.560048967905786 -3.940037217345798 262.9248199158126
C 38.85601615513727 -3.0476773614581387 259.2521727478733
C 39.09323811887912 -6.653729172081578 258.01608770072147
C 35.32493926366397 -6.920861505647494 258.52635410733126
C 32.9684048336943 -5.672019954405791 255.8530908497737
C 31.396101441502598 -2.9432904730775977 258.00559633114693
C 34.1896597684443 -1.3264759153663672 260.00445187879063
C 32.63572668020931 -0.03330493405712939 263.23541830686855
C 29.15040210358007 -0.5280778025884856 261.822476381884
C 27.87869528095886 -0.11637827335938133 265.38421036709724
C 28.76349256519628 3.582449016165945 265.60016602103116
C 27.16386744784954 4.078353226979335 262.1786670331564
C 23.92164586411042 2.530885622528795 263.4235240011235
C 23.96402115418564 4.5452312666454375 266.65433149797184
C 24.69528885719874 7.8446591454613435 264.89627388562593
C 21.958735855023995 7.286949519120703 262.30045381413606
C 19.40925932602398 6.639986018704667 265.04370614551027
C 20.663380589678518 9.657537456088727 266.99049902704695
C 20.167586581824935 11.760837295232102 263.8559953981762
C 16.670574069258066 10.346912806716983 263.39359112327713
C 15.909455536453516 11.308894249419419 267.00983269219455
C 16.90402062254541 14.946783166791294 266.5423179221337
C 20.01620415533285 14.790722014211275 268.6966923924628
C 22.639300547325224 17.48432794965837 268.1064334765051
C 25.643744069840924 15.428194388428174 267.0007011468272
C 28.6494891806268 17.5632272030374 267.8941274885469
C 31.13353892609114 15.836558030978512 265.57464426789323
C 31.83576169001847 12.67375161233437 263.62250685552056
C 32.22449656317977 9.400908013370204 265.4423934101377
C 35.48948479515958 7.957107464486588 266.7060944259196
C 36.240897104631046 4.657950919205594 264.94196971539463
C 39.1921351764489 2.769457171005459 266.42977710208424
C 40.868805055245474 0.09973759466902542 264.3042357511934
C 42.64687535441407 -2.7113751199306426 266.1006105962272
C 44.075159991218705 -2.098806779566047 269.5505984939133
C 42.92713014564717 1.2214143269732423 271.06522121279943
C 46.098214831062435 1.5296373130293066 273.1419463794593
C 48.070659816015485 1.7798115999781565 269.8743488562969
C 45.79949773575911 4.645661763172064 268.70921447884854
C 45.68489930616194 6.743739554239593 271.89101745926985
C 46.60810655741278 10.017085107796744 270.156531001294
C 43.35930724035013 9.861280672042158 268.17662857592654
C 41.19419287512676 9.03799131525091 271.2044979952437
C 42.62343162934031 12.007971956234 273.09994039206805
C 42.40869849448671 14.178059421618483 269.988046709484
C 38.76185088422466 13.232446990149574 269.48129165911007
C 37.94887702062992 13.899827050903152 273.1409410491478
C 39.54621710693484 17.326985391913443 272.7316908890526
C 37.244301276510754 18.159737046586642 269.82294752613933
C 34.156988463753876 16.872021858339764 271.65355867111685
C 35.21559059591776 18.952409389046476 274.66992188803533
C 34.10049654192135 22.14875381446214 272.939918064022
C 30.451057121005636 21.071090379026828 272.87616786587313
C 29.84067558796101 23.353130666222203 275.8789252320876
C 31.68275505258786 26.71111811894507 275.76841474539333
C 34.735778029495165 27.146912906168943 277.9888744053169
C 33.184892347208965 30.103211619296584 279.81938861020933
C 30.154337058876116 28.071274242191766 280.90391400419185
C 32.26373575016609 25.194372022302755 282.21825913976267
C 34.73851362798524 27.580364029389123 283.84894110940877
C 31.949197332640498 29.51362370518927 285.5655659982242
C 30.589170345709732 26.218726182861676 286.9246364043945
C 33.863880392830225 24.931169939719787 288.35520233864065
C 34.543052863727176 28.36760662080281 289.84904186167586
C 31.097478028777573 28.255228123056465 291.44705062380154
C 31.59769058157841 24.634404192276996 292.5380140994438
C 35.04115926342868 25.403855434833332 293.9745228169096
C 33.79061044355086 28.355116798044453 296.0286492875714
C 30.962204276526588 26.410220256333794 297.6661394122864
C 33.45564185031087 23.73408614061085 298.7019470783321
C 35.77434969833234 26.311417248789784 300.2886533831611
C 32.7473672520915 27.726938964398528 302.1054344859562
C 31.37844639197422 24.408607450135275 303.39290686981826
C 34.821914508161086 23.39528939562809 304.6532509578394
C 35.14724866971123 26.76121215711935 306.3937442034084
C 31.772523116592883 26.339981027190973 308.11223757059383
C 32.605373333992524 22.785354674941736 309.1903124565306
C 35.92773181283137 23.69582156171418 310.7996126434655
C 35.47080626234017 27.21378911718575 312.1645506534106
C 31.71752330650418 26.974156965794545 312.7211882722501
C 31.853807007836572 24.97619080764307 315.9624224728266
C 34.37956556333539 27.3743545081551 317.506262449402
C 32.103830783834056 30.285685122924814 316.5943130710141
C 29.209587295203654 28.510197928835847 318.3078766075674
C 31.39353768231465 28.217466802874487 321.4115898414069
C 32.06147681213166 31.960890893429532 321.31445399350855
C 28.317912120204937 32.552748849472835 320.9721593055225
C 27.772035590529562 30.478566144889374 324.1148173971274
C 30.341616051463287 32.689311687638174 325.8548827707984
C 28.896183056592506 36.13051496471045 325.1066621248306
C 25.160691293811144 35.68574378543049 325.68484777739536
C 25.173018770566514 33.27581837318296 328.61897306898493
C 27.791958305220835 31.436093442994476 330.64425709619593
C 29.855112311064044 28.43989762420507 329.5497926541549
C 29.410873960186663 24.80361606599444 330.5352692395889
C 32.01053380570422 22.361644071773497 331.79272705854584
C 31.27772548794791 20.363218197639696 328.6350160491987
C 31.685897048372272 23.256214702389833 326.19239132571835
C 35.08989286386031 24.09478433052674 327.70060609997375
C 36.16041345474626 20.506457726798924 326.9065138835963
C 34.980966752403425 20.21477110823074 323.29506427087426
C 36.64643526753371 23.595611071657398 322.72715951118016
C 40.05197395525021 21.89204734823744 322.8651123174859
C 39.017811015664414 19.766550582623225 319.8726036547
C 36.96076824828704 22.405927550255402 318.06142329399177
C 39.98837788053402 24.71005136984535 318.0450872091812
C 41.956504819785344 21.92419584736239 316.3474519557313
C 39.26803127439126 21.857812926439202 313.66184998042377
C 40.22130507279182 25.47869779909781 312.9882091919202
C 43.758328718558296 24.35870894695823 312.1087004750282
C 42.87060533813559 21.594076081539516 309.65850194313623
C 40.82702899760599 24.108940081291767 307.6760327799509
C 44.167545221680854 25.717084389375948 306.8217319123647
C 45.545091339121306 22.27656497628869 305.88382402975657
C 42.830158884666545 21.073877547392787 303.5084792358549
C 42.50735904807846 24.38979777811589 301.65900300625526
C 45.89649846681845 23.8876851870706 299.9404378250228
C 44.63214705509347 20.367982815703627 299.21231081439396
C 41.44112850933272 21.79674226180166 297.69469740764686
C 43.4030049050637 24.207119696698125 295.50290361550014
C 45.47964180650685 21.322332785136354 294.1491421083396
C 42.52150864872468 19.123333737435217 293.2068084501675
C 40.42602640765262 21.758597352947792 291.40591505784465
C 42.83766143938753 24.372425680412302 290.01405623193165
C 44.18835369424203 22.572648585425227 286.9514111767592
C 46.440511550986834 25.54938759408271 286.1579091659848
C 48.10199087407234 25.439058279977385 289.5840033738424
C 49.11167564517452 21.811292658105316 289.0318919175135
C 50.91667164501397 22.764518932395728 285.82240932233714
C 52.63315131473035 25.752066445474732 287.44620032423046
C 53.75421591253327 23.31412523351236 290.1514799593786
C 55.16956162864559 20.859597091833507 287.6055951308463
C 56.865063148010854 23.832523690815794 285.91150989400967
C 59.22372644665568 23.840048780241517 288.90463870738563
C 59.36955275897339 20.025876141643703 288.6572839427962
439
Mode 10 - Frame 30
C 49.211 36.102 337.397
C 50.641 33.922 338.739
C 50.481 30.678 336.798
C 50.247 33.045 333.827
C 47.502 33.96 331.375
C 49.019 32.218 328.358
C 47.901 31.39 324.833
C 46.988 27.713 324.364
C 46.699 27.216 328.147
C 43.349 25.426 328.126
C 41.572 23.38 330.808
C 43.149 20.132 329.497
C 40.979 17.476 331.113
C 43.256 14.428 330.816
C 41.882 10.915 330.366
C 45.381 9.485 329.797
C 48.942 10.661 330.443
C 51.749 11.076 329.43
C 51.312 9.291 326.097
C 48.565 11.787 325.308
C 50.8 14.666 326.392
C 53.73 13.255 324.412
C 51.88 11.85 321.394
C 49.384 14.708 321.022
C 52.257 17.181 321.314
C 54.322 15.675 318.489
C 51.154 15.02 316.482
C 49.82 18.569 316.813
C 53.23 20.137 316.183
C 53.764 18.015 313.062
C 50.29 18.899 311.784
C 51.018 22.59 312.3
C 54.406 22.626 310.575
C 52.939 20.654 307.665
C 50.341 23.401 307.198
C 52.9 26.217 307.278
C 54.957 24.499 304.58
C 52.047 23.481 302.356
C 50.536 26.975 302.508
C 54.027 28.363 301.94
C 54.107 26.082 298.891
C 50.902 27.647 297.541
C 52.335 31.125 298.123
C 55.424 30.076 296.151
C 53.914 28.787 292.897
C 51.72 31.893 292.621
C 54.442 34.505 293.121
C 56.81 32.312 291.089
C 54.75 32.179 287.883
C 53.513 35.246 286.012
C 50.632 33.422 284.31
C 48.928 33.327 287.741
C 49.908 36.552 289.536
C 48.199 38.427 286.682
C 44.934 36.498 287.155
C 42.379 38.069 289.542
C 41.269 34.575 290.6
C 44.696 33.815 292.101
C 44.662 37.038 294.091
C 41.844 35.166 295.865
C 43.713 31.891 296.453
C 46.926 33.655 297.443
C 44.939 35.782 299.887
C 43.408 32.657 301.438
C 46.73 30.813 301.545
C 48.532 33.696 303.262
C 45.599 33.882 305.681
C 45.873 30.139 306.325
C 49.629 30.612 306.732
C 49.327 33.557 309.14
C 47.296 31.331 311.452
C 49.29 28.127 311.023
C 52.473 30.088 311.775
C 50.969 31.511 314.971
C 49.859 28.002 315.914
C 53.315 26.438 315.635
C 54.947 29.482 317.233
C 52.636 29.574 320.257
C 52.728 25.775 320.538
C 56.531 25.567 320.665
C 56.714 28.75 322.765
C 54.524 27.301 325.548
C 54.443 23.491 325.331
C 58.244 23.294 324.914
C 59.727 26.392 326.569
C 56.819 27.091 328.963
C 57.405 30.827 328.557
C 54.882 33.347 329.86
C 52.699 35.712 327.85
C 52.18 39.324 328.876
C 49.009 41.186 327.883
C 50.272 42.456 324.523
C 52.142 39.294 323.507
C 48.965 37.317 324.216
C 46.598 39.549 322.234
C 49.037 39.691 319.314
C 48.936 35.895 319.041
C 45.149 35.819 319.397
C 44.743 38.783 317.056
C 46.834 37.021 314.432
C 44.494 34.03 314.536
C 41.534 36.416 314.571
C 42.999 38.23 311.556
C 43.548 34.934 309.724
C 39.847 34.071 309.891
C 38.753 37.65 309.216
C 40.734 37.841 305.975
C 39.428 34.379 305.066
C 35.828 35.583 305.358
C 36.831 38.877 303.749
C 38.274 36.949 300.804
C 35.096 34.898 300.341
C 33.231 38.214 300.377
C 35.331 39.689 297.563
C 34.898 36.469 295.591
C 31.117 36.816 295.843
C 31.425 40.33 294.396
C 33.524 39.059 291.489
C 30.885 36.433 290.727
C 28.119 39.029 291.008
C 29.91 41.107 288.362
C 30.365 38.023 286.171
C 26.635 37.284 286.432
C 25.297 40.817 285.942
C 27.962 42.083 283.487
C 29.094 38.986 281.567
C 30.096 41.0 278.497
C 32.373 43.558 280.181
C 33.426 41.428 283.174
C 37.007 41.003 281.94
C 37.57 44.768 281.74
C 35.852 45.544 285.07
C 37.639 43.079 287.375
C 41.311 43.657 286.549
C 44.63 42.979 288.249
C 44.957 46.535 289.653
C 41.316 46.469 290.77
C 41.719 43.126 292.542
C 44.897 44.179 294.366
C 43.223 47.308 295.744
C 40.175 45.361 296.928
C 42.279 42.749 298.723
C 44.729 45.254 300.214
C 41.804 47.239 301.62
C 40.129 44.089 302.899
C 43.229 42.957 304.792
C 43.71 46.339 306.461
C 40.091 46.137 307.607
C 40.746 42.562 308.738
C 43.979 43.494 310.531
C 42.358 46.495 312.21
C 39.875 44.278 314.046
C 42.629 42.094 315.492
C 44.594 45.134 316.64
C 41.499 46.825 318.16
C 41.468 44.361 321.085
C 45.249 44.537 321.295
C 45.015 48.313 321.236
C 41.973 49.342 323.296
C 39.132 46.894 323.99
C 40.18 44.907 327.069
C 39.352 43.532 330.472
C 42.354 45.307 331.985
C 42.048 48.64 330.19
C 38.239 48.878 330.346
C 37.586 46.949 333.592
C 34.842 45.255 331.574
C 33.348 41.782 331.861
C 35.937 39.221 330.834
C 35.426 36.3 328.462
C 35.204 32.865 330.071
C 37.284 31.424 327.2
C 40.005 33.927 326.333
C 42.018 35.962 328.858
C 42.152 39.756 328.504
C 39.26 39.71 325.986
C 36.284 42.05 326.299
C 32.862 40.439 326.006
C 31.376 43.348 324.062
C 34.234 43.198 321.563
C 33.261 39.617 320.712
C 29.662 40.643 320.041
C 31.002 43.14 317.502
C 33.406 40.552 316.077
C 30.865 37.712 316.021
C 28.152 39.9 314.525
C 30.433 41.182 311.763
C 31.54 37.739 310.583
C 28.082 36.222 311.115
C 26.464 38.835 308.861
C 29.192 38.423 306.249
C 28.909 34.626 306.322
C 25.108 34.751 306.133
C 25.449 36.856 302.987
C 28.224 34.68 301.533
C 26.097 31.564 302.023
C 23.176 33.196 300.215
C 25.447 34.599 297.506
C 27.283 31.338 296.817
C 23.94 29.561 296.378
C 22.743 32.243 293.952
C 26.087 32.129 292.115
C 25.897 28.349 291.726
C 22.227 28.533 290.699
C 22.977 31.173 288.065
C 25.888 29.04 286.854
C 23.467 26.203 286.063
C 20.876 28.432 284.367
C 22.825 28.579 281.095
C 24.441 25.142 281.196
C 25.197 22.299 283.513
C 28.617 20.775 282.935
C 27.839 17.05 283.183
C 28.962 14.487 280.622
C 27.523 10.981 280.361
C 29.447 8.095 278.817
C 27.713 4.775 278.109
C 29.889 2.018 276.67
C 29.36 -1.547 275.549
C 32.494 -3.7 275.602
C 33.27 -7.408 275.997
C 37.075 -7.51 275.775
C 37.538 -4.007 277.203
C 38.763 -2.078 274.155
C 35.758 0.2409999999999999 274.183
C 35.93 0.4329999999999999 277.991
C 39.553 1.5719999999999998 277.776
C 38.538 4.035 275.055
C 35.758 5.476 277.216
C 37.992 5.698 280.297
C 40.563 7.602 278.229
C 37.92 10.052 276.991
C 36.639 10.279 280.569
C 39.867 11.717 281.992
C 40.361 14.283 279.209
C 36.875 15.669 279.863
C 37.403 15.455 283.63
C 40.46 17.701 283.306
C 38.605 20.094 280.991
C 35.927 20.913 283.575
C 33.152 18.365 283.01
C 31.484 16.4 285.796
C 31.986 13.067 284.034
C 29.687 10.094 284.713
C 30.847 6.85 283.078
C 28.518 3.839 283.062
C 28.469 0.3969999999999999 281.477
C 25.526 -0.1300000000000001 279.123
C 24.54 -3.309 280.989
C 23.725 -1.288 284.134
C 21.506 1.517 282.771
C 17.817 1.952 282.011
C 17.012 3.792 278.79
C 14.072 5.813 280.12
C 15.221 9.366 280.79
C 18.857 8.254 280.8
C 20.269 11.415 279.211
C 18.381 13.808 281.497
C 20.569 16.135 283.537
C 23.499 15.786 281.123
C 24.266 18.235 278.325
C 26.939 16.01 276.777
C 26.372 12.304 276.111
C 28.946 9.977 274.551
C 27.772 6.544 273.444
C 30.443 3.938 272.728
C 29.875 0.4789999999999999 271.31
C 31.926 -2.224 269.607
C 30.776 -4.1 266.505
C 30.215 -7.871 266.51
C 28.943 -8.737 263.047
C 29.793 -12.439 262.767
C 28.305 -12.545 259.275
C 25.978 -9.534 259.653
C 26.273 -6.301 261.66
C 25.568 -6.414 265.387
C 26.057 -4.133 268.368
C 27.843 -5.326 271.479
C 25.226 -7.289 273.363
C 25.086 -5.103 276.471
C 24.239 -2.086 274.297
C 21.304 -3.551 272.354
C 18.643 -2.95 275.071
C 19.638 0.721 275.128
C 19.758 0.909 271.34
C 16.286 -0.606 271.007
C 14.79 1.97 273.401
C 17.008 4.905 272.461
C 14.027 7.189 271.785
C 13.247 7.111 275.532
C 16.616 8.559 276.573
C 15.881 12.224 275.854
C 18.293 12.568 272.917
C 16.322 15.163 270.936
C 18.056 18.524 271.111
C 20.876 17.138 273.241
C 24.573 17.16 272.341
C 25.887 13.653 271.617
C 28.785 11.899 269.917
C 29.691 8.276 269.306
C 32.813 6.143 269.516
C 33.547 2.462 269.105
C 36.199 -0.20300000000000007 268.603
C 36.255 -2.371 265.499
C 38.568 -3.936 262.938
C 38.863 -3.049 259.264
C 39.104 -6.657 258.034
C 35.336 -6.927 258.545
C 32.978 -5.685 255.87
C 31.403 -2.954 258.018
C 34.195 -1.331 260.014
C 32.64 -0.033999999999999996 263.243
C 29.155 -0.534 261.831
C 27.883 -0.11799999999999998 265.392
C 28.765 3.582 265.603
C 27.165 4.072 262.181
C 23.924 2.524 263.428
C 23.965 4.543 266.656
C 24.694 7.841 264.894
C 21.958 7.278 262.299
C 19.409 6.633 265.043
C 20.661 9.654 266.986
C 20.164 11.753 263.849
C 16.668 10.336 263.388
C 15.906 11.302 267.003
C 16.898 14.94 266.531
C 20.01 14.789 268.686
C 22.631 17.484 268.093
C 25.637 15.429 266.99
C 28.641 17.568 267.882
C 31.126 15.84 265.564
C 31.83 12.675 263.615
C 32.221 9.404 265.438
C 35.487 7.964 266.703
C 36.241 4.663 264.943
C 39.194 2.779 266.433
C 40.873 0.10799999999999996 264.311
C 42.654 -2.699 266.111
C 44.082 -2.081 269.56
C 42.931 1.24 271.07
C 46.102 1.5539999999999998 273.146
C 48.074 1.8019999999999998 269.878
C 45.8 4.664 268.709
C 45.684 6.766 271.888
C 46.604 10.038 270.149
C 43.355 9.877 268.17
C 41.191 9.055 271.199
C 42.618 12.028 273.091
C 42.401 14.195 269.977
C 38.755 13.246 269.472
C 37.942 13.916 273.131
C 39.537 17.344 272.719
C 37.234 18.173 269.81
C 34.148 16.885 271.642
C 35.206 18.968 274.657
C 34.089 22.163 272.926
C 30.44 21.084 272.863
C 29.831 23.368 275.866
C 31.674 26.726 275.757
C 34.727 27.162 277.977
C 33.179 30.117 279.81
C 30.148 28.087 280.894
C 32.256 25.21 282.207
C 34.733 27.593 283.84
C 31.945 29.525 285.558
C 30.583 26.231 286.915
C 33.857 24.941 288.346
C 34.538 28.372 289.843
C 31.092 28.261 291.44
C 31.589 24.64 292.529
C 35.032 25.403 293.968
C 33.784 28.353 296.024
C 30.954 26.41 297.66
C 33.445 23.732 298.696
C 35.766 26.305 300.285
C 32.74 27.722 302.102
C 31.37 24.405 303.389
C 34.813 23.389 304.65
C 35.14 26.753 306.392
C 31.766 26.332 308.111
C 32.599 22.777 309.188
C 35.921 23.685 310.799
C 35.465 27.203 312.164
C 31.712 26.962 312.722
C 31.851 24.963 315.964
C 34.376 27.362 317.507
C 32.099 30.273 316.595
C 29.207 28.496 318.311
C 31.393 28.205 321.414
C 32.059 31.949 321.315
C 28.315 32.539 320.974
C 27.772 30.465 324.118
C 30.341 32.678 325.856
C 28.893 36.118 325.107
C 25.158 35.671 325.687
C 25.173 33.262 328.622
C 27.794 31.425 330.647
C 29.859 28.43 329.553
C 29.418 24.794 330.541
C 32.02 22.355 331.799
C 31.288 20.354 328.643
C 31.692 23.246 326.198
C 35.096 24.088 327.704
C 36.171 20.499 326.913
C 34.988 20.206 323.302
C 36.65 23.588 322.73
C 40.057 21.887 322.868
C 39.021 19.759 319.877
C 36.959 22.395 318.064
C 39.986 24.701 318.045
C 41.953 21.914 316.348
C 39.262 21.847 313.663
C 40.215 25.468 312.988
C 43.752 24.348 312.109
C 42.863 21.582 309.66
C 40.819 24.097 307.676
C 44.16 25.704 306.822
C 45.536 22.262 305.885
C 42.82 21.061 303.509
C 42.498 24.377 301.659
C 45.887 23.872 299.941
C 44.619 20.354 299.212
C 41.429 21.786 297.694
C 43.393 24.195 295.503
C 45.466 21.308 294.149
C 42.504 19.115 293.204
C 40.414 21.755 291.403
C 42.83 24.365 290.014
C 44.18 22.567 286.952
C 46.439 25.536 286.159
C 48.097 25.421 289.586
C 49.101 21.792 289.034
C 50.91 22.742 285.826
C 52.63 25.727 287.45
C 53.745 23.288 290.157
C 55.158 20.83 287.613
C 56.86 23.8 285.92
C 59.216 23.804 288.915
C 59.355 19.989 288.67
