439
Mode 7 - Frame 1
C 49.1989849872026 36.0748898006515 337.3975168161331
C 50.62825314331293 33.893451565575255 338.7379649259421
C 50.46903153756596 30.651430125560406 336.79363721238985
C 50.23646975129416 33.021493289504825 333.824927708814
C 47.492522935419906 33.93896556233832 331.37268501073794
C 49.010688434798254 32.19989770330349 328.35458155716816
C 47.894066517991334 31.375341751713236 324.82832849650384
C 46.98134305022007 27.698782527466467 324.3555292541032
C 46.69081355905303 27.19804112262236 328.13789618159655
C 43.340951574341915 25.407952923384865 328.11420044035043
C 41.563011378278134 23.359172722981064 330.79340869361545
C 43.14050282186825 20.11240774258041 329.47977978283456
C 40.96980239312273 17.454779108999634 331.0922107770755
C 43.24638432338807 14.406740403888973 330.7922705485861
C 41.872108833873234 10.894437918395008 330.3373580495547
C 45.371172340267435 9.464633046229144 329.76833923856253
C 48.932024297561355 10.639445524480113 330.4174046906132
C 51.73954982882432 11.055454788998063 329.4062473816374
C 51.30402882852492 9.274271015869122 326.0710381850966
C 48.55758447383457 11.771400221435538 325.2835994974089
C 50.79230899771508 14.649053577789868 326.37185955273924
C 53.72313252311436 13.240144310637481 324.39169414720675
C 51.87454559873768 11.838438742799639 321.3712748574853
C 49.37880178372615 14.696942640324279 321.00126740762096
C 52.2517297223799 17.169576073066718 321.29722716866485
C 54.31799549936094 15.66653566307274 318.47157662863975
C 51.1509075236362 15.01360594948686 316.462432260282
C 49.81675780327132 18.562282908157176 316.796637369903
C 53.22701393574419 20.130935352812642 316.16966277871313
C 53.76249064571646 18.012119588068018 313.04677223195046
C 50.28896544276555 18.897323547485563 311.76827833234694
C 51.016671086383205 22.587848893769326 312.28825339535297
C 54.40539087650401 22.62564768744842 310.5646546855931
C 52.939645392266314 20.65644126925488 307.652185142443
C 50.341684388653505 23.403827641389704 307.18692483255126
C 52.90058307259568 26.219823607666886 307.2704932732137
C 54.958663468731416 24.504458143349627 304.57165035906183
C 52.0494978624582 23.488331048954556 302.34572170679763
C 50.53831841126774 26.982162767654124 302.50036307360693
C 54.029420968381416 28.37076143788679 301.9347291633194
C 54.11058625319985 26.092384460200204 298.8837281400306
C 50.905953215044995 27.658410261787935 297.534038290117
C 52.33864154051971 31.13594020963961 298.1194602616106
C 55.42825796549699 30.08857743162914 296.1474594109527
C 53.9193276664625 28.802228849717867 292.8918609888856
C 51.72536369126061 31.908388862739624 292.6178417850004
C 54.44714633631973 34.52007446904723 293.1209251532957
C 56.81584432705769 32.32885049776965 291.0878097110138
C 54.7568660932306 32.19849892141501 287.8810330862921
C 53.520446157536945 35.26709662694462 286.01225188936945
C 50.64005645968803 33.444384721222875 284.30774370095685
C 48.93496049943762 33.34634094796977 287.7381354645279
C 49.91426491237857 36.56995258140929 289.5362548130561
C 48.20616682312076 38.44726754323105 286.6832906899335
C 44.94123308168311 36.517455487850604 287.15365336611086
C 42.38540589992621 38.0862086587664 289.5411857872157
C 41.27486402336972 34.591103063639565 290.5955159340504
C 44.70149116760679 33.83048911395151 292.0972718692397
C 44.66666964274361 37.05191757546294 294.08990882918874
C 41.84814614675499 35.17836685968503 295.86139519414263
C 43.717185255946156 31.9031151817561 296.44737835451105
C 46.929806931449974 33.666405817929196 297.43991517883524
C 44.94181874963791 35.79121638251729 299.8850236548872
C 43.410435302735 32.66487428395206 301.43284858643534
C 46.73251717878027 30.820883179322276 301.5394127737773
C 48.5337778953807 33.70237426104645 303.2595904921778
C 45.59989659923522 33.88609897133088 305.67770658696816
C 45.87377237551005 30.1425165545781 306.31846340265014
C 49.629628674350954 30.615234740940174 306.7272960172654
C 49.32660422860306 33.55790939550574 309.13791958185146
C 47.29478758837962 31.329706247430725 311.4470703738003
C 49.289046388295034 28.12614368419491 311.0158673051975
C 52.47167909805198 30.086459672687305 311.7710181631249
C 50.96634084440091 31.5062622674099 314.967776586882
C 49.85603032861023 27.99636581927607 315.90694397307186
C 53.31211503530457 26.43259435662246 315.62785896892177
C 54.943363607270015 29.475001853493 317.2295690797377
C 52.63105465587467 29.56390786501097 320.25264380960976
C 52.72292607983408 25.764618000951188 320.52992278439893
C 56.5258824470232 25.556463829068186 320.65835438791584
C 56.7079971562 28.737315873319183 322.761577048315
C 54.516791446205374 27.285522725396916 325.54218722720447
C 54.43580005178051 23.475703142775632 325.32136922106895
C 58.23694289230938 23.27906596156918 324.90583010578445
C 59.719317508984545 26.37540349392721 326.564509634307
C 56.81033501232154 27.07213649043866 328.9579475894189
C 57.39656446971779 30.80854257765754 328.55586630389513
C 54.87305594338926 33.32737876329963 329.86013393883724
C 52.690905476985684 35.69434429129794 327.851479261546
C 52.17151518847985 39.30532937088407 328.88076688123186
C 49.00098477075013 41.168360711157355 327.88824972902125
C 50.26527262139107 42.44165156868653 324.5299786099397
C 52.13565509624096 39.2806316062334 323.51172044063736
C 48.958362676078195 37.302951948260755 324.2174728316308
C 46.59216789047618 39.536939382508315 322.2366636073386
C 49.03233615933755 39.68184313302298 319.317803034585
C 48.93139817911803 35.8860944171116 319.0411199464949
C 45.144259568041406 35.809790313290286 319.3954185984455
C 44.73929089449047 38.77612646033798 317.05707898480523
C 46.83140994887498 37.01674767074709 314.43222022415574
C 44.49141290062324 34.02565587260336 314.53240578583785
C 41.53137992295943 36.41160277647782 314.56842405386055
C 42.99757889756797 38.22851089999548 311.555702926398
C 43.54730563174146 34.93424982563667 309.7208593371804
C 39.84623113553923 34.071050634246475 309.88565784545466
C 38.75247333541848 37.65068184011305 309.21351334255843
C 40.734603466617756 37.844672688743934 305.97337199641936
C 39.42900822102493 34.383534551279006 305.0608011267581
C 35.828876042555045 35.587315285623845 305.3526001998159
C 36.83233100623611 38.88264801332 303.7467515168411
C 38.276363506132526 36.95727276134905 300.8005809854364
C 35.098562817553244 34.90681696458197 300.334752107828
C 33.233475661485706 38.2227175309847 300.37263769596376
C 35.334178739535524 39.6998003884723 297.5604428034479
C 34.902152443642564 36.48140067806969 295.5858589689985
C 31.12101801370992 36.82818347568048 295.83660409082023
C 31.429468640354518 40.342661184660564 294.39139127692675
C 33.529573456796214 39.073425117297994 291.4846336720631
C 30.89112519571783 36.44755390706604 290.7199832457128
C 28.125037773681044 39.043257628860154 291.0007672944511
C 29.917167696460716 41.12188307936725 288.35620724128995
C 30.373449696585247 38.03860529846019 286.1640781082295
C 26.643208530207385 37.29956310580624 286.42281514936667
C 25.305666834832742 40.8329145377143 285.9335593105394
C 27.971860946306432 42.099316749132896 283.4802128945752
C 29.105196926206073 39.002908843732584 281.5598252515478
C 30.109039307899625 41.0179376484167 278.4911302211064
C 32.38458489328712 43.57578657119023 280.1773737997424
C 33.436136650479376 41.44451473135552 283.1701862376058
C 37.0177093787031 41.021135836345834 281.93837731655026
C 37.58021862838886 44.78646102772482 281.7402869571159
C 35.859814734025996 45.56126991410014 285.0692201461511
C 37.64571381869056 43.09663833929796 287.3750818598478
C 41.317949488339494 43.67627170315493 286.55173139943844
C 44.63623728444156 42.99758743929386 288.2528467585224
C 44.9616482524103 46.55262496181524 289.6595855583558
C 41.32012827363272 46.48489900035934 290.77501036035034
C 41.723372714723865 43.140886718682125 292.54469808702976
C 44.90060543176954 44.19278088574337 294.37069850603973
C 43.225904648042146 47.32040649866326 295.75075176965186
C 40.17798104278797 45.372258015168846 296.932339631497
C 42.28166003872564 42.75903030780932 298.7259187973707
C 44.730954773733444 45.26289010044489 300.2197837895799
C 41.805638673941594 47.24638203634423 301.6268013473817
C 40.13049005142813 44.09533427174562 302.9026612308743
C 43.22982579598137 42.961768235475844 304.7957189472376
C 43.71022466971603 46.34211791961837 306.46800552130895
C 40.091021736638204 46.13907533424289 307.61272198276373
C 40.74564349368183 42.56309604631106 308.7407248832191
C 43.977863133801264 43.49345895757883 310.53585607948236
C 42.35625882727768 46.492737623345164 312.21717372444533
C 39.872569909919186 44.27405737795182 314.0502048125172
C 42.62597954945226 42.088669759428754 315.49522215626064
C 44.59042780032641 45.12749195708123 316.6470195132236
C 41.494808464649495 46.816888166708914 318.167486313794
C 41.462669897497776 44.35005090269884 321.0901763099391
C 45.24356456809037 44.52584193192655 321.30182649270375
C 45.00957406779021 48.30186978846476 321.2463980004167
C 41.96680034998653 49.32882775910355 323.30625457323765
C 39.12563335692463 46.88013420089241 323.99687581576467
C 40.17242765120229 44.890193539121356 327.07436427573634
C 39.343144145095806 43.51191484642317 330.475751801193
C 42.344559131384315 45.285457266234516 331.9915832972152
C 42.039234669494576 48.620178852209236 330.1996598137369
C 38.23019051576333 48.858021780629365 330.3544931643908
C 37.5759969015573 46.925897693804544 333.59841042555007
C 34.83274205563546 45.23384579970516 331.57777716637105
C 33.33862686855287 41.76058159602615 331.8609060170643
C 35.92800508268006 39.20057166409631 330.8324083544687
C 35.417858213556435 36.281839800527926 328.45747398861863
C 35.195218726494495 32.84528944933646 330.06316039163863
C 37.2763135996145 31.40700281276813 327.19166450941447
C 39.99759793333707 33.910837441766326 326.3277911178801
C 42.009626226112296 35.94344505662115 328.855447721532
C 42.143812144290905 39.73779354140908 328.5051734063333
C 39.252814707827085 39.69422565768381 325.9860321066143
C 36.276730971081534 42.033925340365464 326.3002397464821
C 32.85481754052822 40.42323592950719 326.00444542437083
C 31.369590750165838 43.33412821326899 324.06267652360316
C 34.22859018171646 43.18654855104618 321.5646015779058
C 33.2559440819164 39.60635605910882 320.70981068927915
C 29.657191377874785 40.63302848100204 320.03843026582604
C 30.998240708233606 43.13252257747908 317.5023853009068
C 33.4028817446343 40.54590895113507 316.07577377946717
C 30.86191653127436 37.70595746562101 316.0160870827337
C 28.149525600139462 39.89551167143811 314.521146712761
C 30.43169090752733 41.180249475716394 311.7612780452962
C 31.539123383878295 37.73840225842666 310.5783068212855
C 28.080889434816488 36.220925086045185 311.1076339051993
C 26.463840683519127 38.83631970875935 308.85550992779844
C 29.192770233767916 38.426691282799766 306.24406499331036
C 28.90966239484717 34.62955937223795 306.3135683388192
C 25.108651874517655 34.754975847159976 306.1234371203377
C 25.45090734984573 36.8628261417846 302.97936510880487
C 28.22629783910108 34.68793725587335 301.52442620434795
C 26.099141125495898 31.571444226655178 302.01139342974585
C 23.17870022611312 33.2052952787102 300.20385029196365
C 25.45064086970587 34.61021218326052 297.4964819771144
C 27.28685041735428 31.349574460891354 296.8058188096994
C 23.943868955704993 29.572963229666307 296.36502999609104
C 22.7476514204182 32.25682446016556 293.94033055933755
C 26.092075725538034 32.14347182497718 292.10398635189483
C 25.902329745515758 28.363866166660838 291.71331310735917
C 22.2320787866569 28.548617086807976 290.68618343006085
C 22.982901346882738 31.18916269523485 288.0526869521011
C 25.89364182089653 29.056158251885293 286.84147996599245
C 23.472319000146765 26.21913432466622 286.0513206420566
C 20.88142021769613 28.44779444007066 284.35489843948903
C 22.829780957475617 28.59172125188532 281.08279522907605
C 24.445006905696758 25.153823961350145 281.1860637195767
C 25.20240200809252 22.3130513319307 283.505237777919
C 28.62263914001467 20.788859073560026 282.9279544780977
C 27.845905097305025 17.064196641006525 283.1823155173917
C 28.967711525353256 14.498076763474199 280.62405036657157
C 27.529265217312844 10.991366873604488 280.3694134989198
C 29.45287626686634 8.103711353780021 278.82814236311384
C 27.71913097005712 4.782345043545979 278.12655806575674
C 29.894749723993456 2.023825464549007 276.68996447917715
C 29.365728471163955 -1.542936803351306 275.57476141241426
C 32.50033812328167 -3.6950412006825926 275.62836945878223
C 33.27761914726808 -7.4022345785277 276.028313131117
C 37.08248413797441 -7.503608734281415 275.8031984010346
C 37.54582745480333 -3.998380867953506 277.2255222999027
C 38.76777585778162 -2.0735879506603476 274.17361921975083
C 35.762159722872816 0.24465368989047234 274.2007112233084
C 35.937311246320085 0.44232015144463144 278.008274118858
C 39.55988273774671 1.5819225623139195 277.7884840579557
C 38.54193291524626 4.04068064587352 275.0646845929506
C 35.76333887285345 5.48406953790183 277.22586401133657
C 37.99987939093204 5.711117170508646 280.30466816017884
C 40.56866620371265 7.612768355128796 278.23163600591664
C 37.92397387874994 10.060318871351534 276.9922661544847
C 36.645866666370694 10.292008847187665 280.57095540611004
C 39.874767754451234 11.732768897456559 281.9892554848197
C 40.36585145040118 14.295070694972203 279.2022496324449
C 36.87995564245921 15.681140426900898 279.85703521340923
C 37.41067856178061 15.471995135418975 283.6233995251703
C 40.467368983977266 17.71836956950517 283.294233070703
C 38.61017658623533 20.108275338230037 280.9785786287646
C 35.93349076989653 20.929186817369196 283.5631428541442
C 33.15853107244241 18.379943198385167 283.00309204034437
C 31.492969898132987 16.41797696395869 285.7928914204783
C 31.9948597713455 13.083384216142045 284.0355609375298
C 29.696991885660555 10.111076895421466 284.7210347869605
C 30.856824380982477 6.8651733486821955 283.08983384940973
C 28.5284833094476 3.853790396696206 283.08036147595277
C 28.479125359927433 0.409487348920266 281.5005625006142
C 25.534257561210485 -0.12162405889653163 279.1498376674996
C 24.550565866676703 -3.298058021638957 281.0214226349609
C 23.737630821022524 -1.2725527893670807 284.16406564299064
C 21.516804684986134 1.5298548073685705 282.798695983545
C 17.827087026276576 1.9628690309251848 282.0410667972739
C 17.01895195180914 3.7978412988281254 278.81795881218994
C 14.079512534376278 5.820080660798376 280.1472924275223
C 15.228141218428096 9.374336101327561 280.8110506847659
C 18.864456794657652 8.263241022132602 280.81972472542924
C 20.274397790731143 11.422190979838 279.2247851872535
C 18.387543686660663 13.818093897004719 281.5087762852955
C 20.57666953227331 16.148338119169196 283.54361467342363
C 23.504742926654107 15.796566253838296 281.12751066662315
C 24.26911343173154 18.242030474650903 278.32545783396057
C 26.941457402624643 16.01545005134989 276.7786091819227
C 26.374713889796464 12.308240929020794 276.118445095238
C 28.948046322718046 9.979590406705402 274.5598848318324
C 27.773942595453956 6.54463646145644 273.4589502167153
C 30.444995951921662 3.9382210596239458 272.74465735211834
C 29.87669510419987 0.4769826951219312 271.33232488824814
C 31.926957611400752 -2.228024511680203 269.63167229868145
C 30.774814471794386 -4.108947734852229 266.5334852928513
C 30.2147958318108 -7.880098314554727 266.54470773443103
C 28.940070039602166 -8.751708746269786 263.08415715794115
C 29.790719649400515 -12.453972569411707 262.8092520950263
C 28.299808444906024 -12.565743551375997 259.31868730292337
C 25.9724144112323 -9.554689900284421 259.69394549740883
C 26.26832287396861 -6.318441419637711 261.6956367638857
C 25.566444439799845 -6.425919035513556 265.4233466011669
C 26.057391185898744 -4.140323891235249 268.4004631736137
C 27.84627440061242 -5.328291409924116 271.51174832798614
C 25.23132341860578 -7.289193816982344 273.4008395903766
C 25.093324163028186 -5.098618748332043 276.50565641732817
C 24.24377922811582 -2.085043864839858 274.3278472969391
C 21.307535096768273 -3.553651898127341 272.38946541465026
C 18.648616784865602 -2.9492444662000925 275.10772804305066
C 19.642766318226798 0.7220726974809479 275.1584148414654
C 19.7596452271558 0.9045117418050734 271.3700386784096
C 16.28776776044778 -0.6118605655588539 271.0421146112853
C 14.793073160783905 1.9673487398873004 273.4334461943679
C 17.009582613936974 4.9015050389554915 272.48727015677764
C 14.027492175329634 7.183789581327703 271.81026103987637
C 13.250481842639896 7.1111030569592675 275.55800681892964
C 16.619949491777213 8.561477273958504 276.5940972685698
C 15.883518567065387 12.225244763836235 275.87023550504597
C 18.29311274905084 12.565609793409603 272.9308505282487
C 16.31989965260098 15.157238868447886 270.9476826969471
C 18.0531521572091 18.518943530234363 271.1163037154294
C 20.875322221203383 17.13688031859154 273.2460259004931
C 24.57164823334599 17.15869897746103 272.34301338633617
C 25.885955970843945 13.650914355730706 271.6230926010913
C 28.782938589028227 11.895005698857332 269.9233410147104
C 29.689163043488144 8.271162079463322 269.31689067417784
C 32.81179505071922 6.139148747856925 269.5274416207509
C 33.54636066921718 2.457686905615792 269.1212921961336
C 36.198608974674755 -0.20739040628674 268.62105397688725
C 36.25255420940145 -2.380037282100592 265.52030523046335
C 38.5638076689997 -3.9483608796157643 262.95980424352206
C 38.85546252808786 -3.066991677099682 259.2842064337219
C 39.09633720184631 -6.676894979168281 258.0596684856694
C 35.3288399053889 -6.947001977913216 258.57417332960097
C 32.96828903801859 -5.709718136051901 255.8992411171943
C 31.39441615121885 -2.9757521914717993 258.0443381540714
C 34.1876800221712 -1.3489537126195223 260.0354972678144
C 32.63507939376009 -0.047353961004347155 263.26381891910364
C 29.149013306199045 -0.550374118936236 261.85551281357755
C 27.879903626620205 -0.12929552162986938 265.41692554359724
C 28.761231452919482 3.5712730650308346 265.6216487328817
C 27.15828861477596 4.05578223518745 262.2002700089899
C 23.91868673293207 2.5088827710471553 263.45228358300477
C 23.96192311225224 4.532752737224435 266.67722168796064
C 24.688736719309155 7.828384734092366 264.90973897344753
C 21.950748100722937 7.260841175273914 262.3178486779258
C 19.404157725072487 6.619311640208886 265.0648941209825
C 20.65705625630624 9.64351420854991 267.00235865837885
C 20.15703089063257 11.737754648587119 263.8626695272601
C 16.660975671861323 10.319206927450956 263.4065750571099
C 15.901671756649707 11.290337798581819 267.02076533065485
C 16.89239315943872 14.927890070842798 266.542565083435
C 20.006191475661844 14.780888200199088 268.6952389395056
C 22.626016079759093 17.475736371057504 268.09614501496355
C 25.631721763944757 15.420006262584156 266.993784119214
C 28.63591724638297 17.56134254841538 267.88060751175345
C 31.119418661342014 15.830407220871743 265.56304039554055
C 31.822414721018067 12.662559549403333 263.61794541237913
C 32.21562162671866 9.394150469017042 265.4451945685315
C 35.48296535760009 7.956738739981292 266.7095547033627
C 36.23627385495353 4.653214495755776 264.9537698509566
C 39.19100475352175 2.7721858462133966 266.4440607782189
C 40.868890440702145 0.09840772928358078 264.32465258064343
C 42.65219483368982 -2.7054027805156773 266.1273664998729
C 44.082970050522924 -2.0818507992230004 269.57421139059596
C 42.932331870016135 1.2410834387456966 271.08018334545363
C 46.1050020170765 1.5590721828578675 273.1530124827445
C 48.074137496689325 1.80279843037057 269.88296277114864
C 45.79833702019483 4.662436056910316 268.7116512097611
C 45.6844859325726 6.769101983027104 271.8876119913374
C 46.60213023825214 10.03879940304621 270.1430239660133
C 43.35148128274495 9.874094922275445 268.16707211879907
C 41.19028492450883 9.055927886164065 271.1990663947432
C 42.618117421536574 12.032035631127371 273.0855491906326
C 42.39790170933194 14.194540838969457 269.968647342169
C 38.751747532304215 13.244003184784205 269.4682209646602
C 37.94173832989032 13.919077048434938 273.12687336861393
C 39.53565150008636 17.346857016711834 272.70877925256536
C 37.22991786413381 18.171417615800067 269.80076133824133
C 34.14582769373582 16.885482056013302 271.6371013831629
C 35.20605232824723 18.973020638714768 274.64830010162706
C 34.087067435980096 22.1658336349878 272.91478002289074
C 30.438214696195637 21.085995089116192 272.85569955140966
C 29.831990009220842 23.374226825110743 275.856501393778
C 31.675012823403655 26.73245553954768 275.74361089265
C 34.72827043298855 27.17242059596931 277.96171502604886
C 33.181698907747176 30.129818294597463 279.7940348361662
C 30.151812075650582 28.100057246462825 280.8806449385198
C 32.26063442505257 25.224096173616793 282.1945035722696
C 34.737797731478274 27.609008102627527 283.8256636244429
C 31.950480187034838 29.541080982811174 285.54429978668963
C 30.588948256214785 26.24773741860635 286.90227255131185
C 33.86388156981136 24.958902482132373 288.3327361180928
C 34.54382716186025 28.388821387242302 289.83028939530806
C 31.097725019221357 28.27661219058796 291.4273948495401
C 31.594829500650686 24.65567399222348 292.51527286782266
C 35.03759825099038 25.417613752070427 293.9544356857212
C 33.788383534924705 28.365512457382735 296.01229330521966
C 30.95792497511181 26.421203304931392 297.64606251060417
C 33.44871139558306 23.74214896264677 298.6802868493153
C 35.76904339205706 26.313942598298446 300.27215080552673
C 32.742241513830685 27.729306167787875 302.08934422235933
C 31.371777422164545 24.410973661413824 303.3727823106682
C 34.81444360878397 23.39375497385186 304.6338695082897
C 35.14075236194652 26.756318175895746 306.3789988752258
C 31.76601304655158 26.333658774873477 308.09629001586063
C 32.59867939074391 22.777493171017817 309.17024624352075
C 35.92014046612104 23.684141117288 310.78319428074485
C 35.463591505690985 27.20093132106661 312.1512993608991
C 31.71031432945667 26.959305787585073 312.7075817597295
C 31.847990855947593 24.957086678538975 315.94761778618357
C 34.372410433594276 27.35468894421521 317.4938980227967
C 32.095685964278296 30.266527580613506 316.5837090587643
C 29.202906989861685 28.487794965437267 318.2967444060211
C 31.38760291600012 28.193704660712473 321.40034017702556
C 32.053587139159305 31.937842689830862 321.3051950701271
C 28.309730823971567 32.52818523093442 320.9632082616859
C 27.765492229590674 30.451092980343176 324.1050001865701
C 30.333797718176786 32.662410846293206 325.84617149385656
C 28.886121110854717 36.10316467436702 325.099850564543
C 25.150906920745967 35.65558703390091 325.67799371830773
C 25.164748007664667 33.24371000515266 328.61067301536764
C 27.784964703575227 31.40471392012432 330.63490989322446
C 29.850368120035697 28.410746581281803 329.53882247323827
C 29.408955686593618 24.773766399315374 330.52310063962045
C 32.0104644120165 22.33349673433375 331.7797563210313
C 31.279674412752893 20.335578686806674 328.62151134689486
C 31.684689535774215 23.229989778060084 326.17953412794054
C 35.088105286307794 24.07047474280479 327.6877465265323
C 36.16332925765788 20.48223548386825 326.89361489649554
C 34.981818956176355 20.19275240921386 323.28184263461316
C 36.64408552162359 23.575306263198467 322.7139382364403
C 40.051025740405976 21.874096504960814 322.85158295055686
C 39.01631007310301 19.749110326625278 319.8580552834531
C 36.95519842071214 22.387079831651203 318.04700009355304
C 39.98219173121891 24.693112240052685 318.03152840351095
C 41.950004982934246 21.90785778116249 316.3325956359998
C 39.260101570203545 21.843462840486882 313.64651667401864
C 40.21331435405571 25.465192382390544 312.9754361465845
C 43.75068330564736 24.346086082186133 312.0966781191823
C 42.86266752387482 21.582367567797476 309.64478749317686
C 40.819365591871005 24.099257000524922 307.66248313893726
C 44.16067700856486 25.707061271077258 306.81111456112865
C 45.537136932493446 22.265965283756806 305.871541181867
C 42.821950296756796 21.066979651781942 303.49367299306266
C 42.50060967068523 24.384732007706337 301.646602730658
C 45.890289819504936 23.881303264457458 299.9293336813643
C 44.622751104953814 20.36381869990186 299.1969774706228
C 41.43313133333571 21.79716136676562 297.6792787554385
C 43.39790063261656 24.20810224922285 295.4909169806153
C 45.471660930880525 21.322394888739936 294.1351726833021
C 42.51033017389887 19.129898431738773 293.1883649284411
C 40.420693028941024 21.772008759247008 291.38928133526395
C 42.83634163658136 24.38239941577162 290.001626403603
C 44.18695553265317 22.586354076036354 286.93862965475876
C 46.445945088981205 25.556064094281563 286.14835406745823
C 48.103327942690214 25.438944134689127 289.5759225718413
C 49.107693907056195 21.810441734822113 289.0214221047783
C 50.917462355661264 22.76312451245997 285.8146479160701
C 52.63689071318794 25.74687961539602 287.4417243229441
C 53.75127675865377 23.3056693907038 290.14695151453526
C 55.16509614895882 20.849899827705094 287.60121025763186
C 56.867441268986134 23.821399806512243 285.91124343310764
C 59.22259537813398 23.822937569075414 288.9069487520894
C 59.36186856047243 20.00818292416236 288.6585785115738
439
Mode 7 - Frame 2
C 49.18749508811887 36.0489644471037 337.39801104492125
C 50.6160633854293 33.86615083472547 338.73697508958736
C 50.45758615437134 30.626021482130227 336.78946509953323
C 50.22639972498651 32.999013935056006 333.82294598669677
C 47.483460064037956 33.918850430536885 331.3704711976152
C 49.002740124879146 32.18258656383707 328.3513125166916
C 47.887436062416974 31.361324139214684 324.82386116012685
C 46.97497704108911 27.68518642670565 324.3474287204492
C 46.68298490485835 27.18086713436238 328.1291902437423
C 43.333254903505726 25.390694590617297 328.1029165780781
C 41.5544156024577 23.339255697908225 330.7794550973367
C 43.13237701119485 20.093671760824133 329.46331217179096
C 40.96100676580101 17.434485672765117 331.0723301429505
C 43.23718889798522 14.386409954142858 330.7695781880655
C 41.86264995916928 10.874774498423967 330.30996788978325
C 45.36177419642353 9.445156226069564 329.74093108992946
C 48.92248458118801 10.618833082970294 330.39292801906646
C 51.73051267547597 11.035807502303769 329.3835328666749
C 51.29640603549323 9.258273168619336 326.0462110260831
C 48.55049304174621 11.756482228050386 325.26026541386756
C 50.784954129135535 14.632847795548276 326.35259933966836
C 53.71656518792243 13.225937886185609 324.37227575761887
C 51.869329580983646 11.827382768016001 321.3495429127458
C 49.37383075444728 14.686368540325486 320.9814409290149
C 52.24668978118139 17.158651426558503 321.281187390544
C 54.31416601461553 15.658441258285594 318.4549147422146
C 51.14795020332885 15.007491349663203 316.44371972468605
C 49.81365730609747 18.555859385460064 316.7809898652579
C 53.22415837682509 20.125135759808778 316.1569084579956
C 53.7610472574578 18.009365063959216 313.0322099904356
C 50.28797610064661 18.89572036399052 311.7532437770112
C 51.01540025266829 22.58579180120309 312.2770201736954
C 54.4048083746277 22.625310772645925 310.55476151106814
C 52.94026257779366 20.65877584332881 307.6399303556537
C 50.34233886623879 23.406531701282148 307.17633370306464
C 52.901140662121044 26.22252381012956 307.2633146264092
C 54.960254235897054 24.509677739643795 304.5636656374987
C 52.05188655634092 23.495341695891522 302.33589262432895
C 50.54053549683811 26.989012487990987 302.49305991754335
C 54.03173612882747 28.37818366369442 301.92968868749404
C 54.11401576992612 26.10231506965949 298.8767740952361
C 50.90973365562289 27.66932184038323 297.5273808403619
C 52.34212392824465 31.146402279621014 298.1160752267743
C 55.432329837469766 30.100605169142874 296.14407356263644
C 53.924422488335615 28.816792125626936 292.88694657721663
C 51.730492963475285 31.92310515833357 292.61482159915107
C 54.45206775304743 34.53449011146177 293.12085357775146
C 56.82143322897876 32.34496454792911 291.08667144336795
C 54.76343210523985 32.21714564639798 287.87915213615156
C 53.527566882258895 35.287271230058906 286.01249276996475
C 50.64776081342852 33.4657911227145 284.3055860130088
C 48.94161679164964 33.36483660370509 287.7353961230015
C 49.920256018023814 36.58712054886495 289.5364984895589
C 48.213020421680916 38.466649297568445 286.6845249705234
C 44.948150042988495 36.53606067752435 287.15236558658455
C 42.39153183128674 38.10266521656841 289.54040715943705
C 41.28047176077948 34.60650234612701 290.5912278432997
C 44.70674234483961 33.845301279298326 292.09370667568317
C 44.67113519969188 37.065226886094216 294.088865347778
C 41.85211108700136 35.19019322825904 295.85794793559904
C 43.72118759612438 31.914700871934368 296.4420024019056
C 46.933447481727896 33.677313146883705 297.43696517915794
C 44.94451430639078 35.80002996489347 299.88313368553946
C 43.412764171054604 32.67240442391041 301.4279223143627
C 46.734924344769084 30.82842182588048 301.534069736151
C 48.53547808820198 33.70846993629807 303.2572862914095
C 45.6007540127815 33.89001879794556 305.6745571118894
C 45.87451099450404 30.14587941884684 306.3122124859705
C 49.63022987261606 30.618328108179256 306.7227976211485
C 49.32622575431529 33.55877904606411 309.135930087959
C 47.293628164964844 31.32846903805684 311.4423561959204
C 49.288134453997515 28.125324793499566 311.0090463433843
C 52.47041592585748 30.084986665069486 311.76721035162825
C 50.96379790666155 31.501731596468154 314.9646940523849
C 49.85319044611026 27.990977879285573 315.900196328379
C 53.30935615740993 26.427424965799677 315.62103003516813
C 54.939886142351675 29.46830955956919 317.2262881071543
C 52.62632544701801 29.554256804748395 320.24847800564294
C 52.71807391432678 25.754689745079173 320.5221985818784
C 56.52098855566824 25.54638813936425 320.65199922096895
C 56.7022566654789 28.725186103839512 322.7583036960438
C 54.50989794080205 27.270721881962192 325.5366285004729
C 54.428914775847396 23.461074831614432 325.31215935339077
C 58.230194214088606 23.264784612279254 324.8980172751496
C 59.71197077969115 26.35953233480867 326.56021551914193
C 56.80204872618385 27.05409740676231 328.9531159934244
C 57.388497612587074 30.790891833239986 328.55478215575016
C 54.86450278497076 33.3086150687962 329.86026202390457
C 52.68316472346892 35.67746022178764 327.8528938722641
C 52.16340120393778 39.28747473785212 328.88532542687994
C 48.99331984547982 41.15149234387983 327.8932700196934
C 50.258839261508896 42.42793023267287 324.53665222113796
C 52.12958749522242 39.26784747542307 323.5162345753677
C 48.952015435061185 37.28951786379255 324.2188812934519
C 46.586590672124125 39.52540587187428 322.23921080225506
C 49.02787615089163 39.67308646507237 319.32143985830965
C 48.92699747989059 35.87757805092915 319.0412346507525
C 45.13972631570651 35.800983134082756 319.3939063117273
C 44.73574389468997 38.769553327342095 317.058110812797
C 46.828933095412566 37.012681188687466 314.43243082345913
C 44.48893886990353 34.02150160441939 314.5289686560816
C 41.52887435585806 36.40739773272379 314.5659606889282
C 42.99621990413142 38.22708688080665 311.55541883633794
C 43.54664161070776 34.93448873269422 309.7178559363966
C 39.84549587414482 34.071099055533416 309.8805491686975
C 38.75196968860639 37.65133388054133 309.21113536397934
C 40.73518055884856 37.84818486336624 305.9718151444072
C 39.42997237795309 34.387870920907936 305.05582946922385
C 35.82971379784671 35.59144197255889 305.347436396811
C 36.83360384111282 38.88804918135574 303.74460130318556
C 38.2786237157057 36.96518396333004 300.79731139821547
C 35.10101362768166 34.915248585503214 300.3287772785246
C 33.23584312468495 38.23105406403402 300.36846604554654
C 35.337218552900055 39.71012874814234 297.55799736865606
C 34.90612340557231 36.493259387002674 295.5809426257211
C 31.124860420940152 36.83983447501093 295.8304877135626
C 31.433741979682626 40.35476901479637 294.3869839771669
C 33.534903326786015 39.08721978775067 291.48045817360907
C 30.89698269099084 36.46147173855589 290.7132731572581
C 28.130811667679772 39.05689213092342 290.99385069284114
C 29.924022130191673 41.136115696749215 288.35066765393225
C 30.38153010088358 38.05352857049514 286.1574587363443
C 26.651058308255806 37.31444602920869 286.4140317207798
C 25.3139548873952 40.84813353376406 285.9254875197112
C 27.9812909219412 42.11492037803224 283.4737224182256
C 29.115904493008124 39.01907868985642 281.5529640740312
C 30.121508735474496 41.03509133552319 278.48551697971675
C 32.39566347114712 43.59279578387 280.1739060818365
C 33.44583028069175 41.46030768970433 283.16653915492867
C 37.02795070616758 41.03847904961796 281.9368255521538
C 37.58999065368272 44.80411521995222 281.7405613728289
C 35.8672879266758 45.577785050083854 285.0684743756576
C 37.65213421128786 43.113505798530454 287.3751601420275
C 41.32459525069121 43.6947011404061 286.55434342361474
C 44.64220196962322 43.01536251829815 288.2565253952386
C 44.966093353885476 46.56947962822521 289.6658832962104
C 41.32407612189803 46.500103138111115 290.77980174391104
C 41.72755432083168 43.15512281632344 292.5472782547095
C 44.904053288869974 44.205959480651714 294.3751916648196
C 43.228682349026805 47.332270773801945 295.75720845457136
C 40.18083179970147 45.38302400105286 296.93648960027366
C 42.284203820994684 42.76862224303662 298.72871002929037
C 44.73282411447469 45.27139166084091 300.2253147998015
C 41.80720572996871 47.25344144227727 301.63330544324623
C 40.1319149804588 44.10139170542076 302.9061624483909
C 43.23061550071574 42.96632807618086 304.79927535863544
C 43.71043952028738 46.34509957118798 306.4747048677205
C 40.09104252328102 46.141059966420805 307.61819388742356
C 40.745302568400476 42.56414419013892 308.74333067596615
C 43.9767759541107 43.49294156130767 310.54049992498926
C 42.3545937521584 46.490574123406226 312.22403392270905
C 39.870246026435765 44.27028706740595 314.0542258545505
C 42.623091107087184 42.0835724759478 315.498303488831
C 44.58701172291987 45.121268346867076 316.65373224003594
C 41.49080011950703 46.80913085945755 318.1746454397518
C 41.45757274605156 44.33958033348934 321.0951263902952
C 45.23836669063728 44.515171524970256 321.30835463491917
C 45.00438527485449 48.29122602058228 321.2563415583202
C 41.96087165442787 49.31623120834169 323.316060972418
C 39.11954496670219 46.8668744037413 324.0034511253866
C 40.16518625038321 44.874121601229454 327.07949410688235
C 39.334675333546045 43.4927075104369 330.4793396306707
C 42.33553087402945 45.26485605330809 331.9978788727519
C 42.03085242599296 48.60122398368935 330.20889744726054
C 38.2217660482604 48.83891670531136 330.36261513674305
C 37.56643098651675 46.90380506924699 333.60454068474303
C 34.823888727864194 45.21361613947231 331.58138925244685
C 33.329663387927255 41.74009927908287 331.8608161416339
C 35.91940328640941 39.18103614449764 330.83088627148476
C 35.41007226224908 36.264473288915084 328.4531457856528
C 35.18682123677841 32.826440344318634 330.05566341178127
C 37.26896313180928 31.390748484179845 327.1836933197657
C 39.990519372506355 33.89538126488403 326.3228098889038
C 42.001618426325315 35.925701053304444 328.85300698988027
C 42.13598213716598 39.72038279242286 328.50629552917917
C 39.24594344740098 39.679140729820524 325.9860628100155
C 36.269779633607484 42.01855322049174 326.3014253100939
C 32.84794898900061 40.40816082453933 326.00295879115635
C 31.36346161530442 43.320862690182345 324.06332347987853
C 34.2234167984511 43.17559758536179 321.56613315917195
C 33.25110913171403 39.596177309509876 320.7077170619423
C 29.65259291561077 40.623492765232946 320.0359728413664
C 30.994645715556487 43.12537195420297 317.502753762315
C 33.39989977199112 40.54008411033363 316.07460115065567
C 30.858967824928158 37.70017901898968 316.0113888835267
C 28.147159343426313 39.89121950437177 314.5174618326644
C 30.430439028677437 41.17857545774393 311.75963134827583
C 31.538285080087583 37.73783064102837 310.5738187570011
C 28.079827406660577 36.2198971509882 311.1005897440878
C 26.463688329932953 38.83758173991324 308.8502597980964
C 29.193506804624185 38.430221238828445 306.23934567009377
C 28.910295839860996 34.63296318282934 306.30550518169156
C 25.109275258990845 34.75877793072084 306.11429218440446
C 25.452731339350716 36.86935394841776 302.9720638989913
C 28.228495251607185 34.69552761557786 301.51622712470754
C 26.101188673533365 31.57856310488416 302.0002941223063
C 23.181282439387974 33.214184309137075 300.1931878796707
C 25.454122615934764 34.62093434031054 297.48737993750143
C 27.290532552993824 31.360643062301328 296.79512629106824
C 23.94756881948037 29.58440360879025 296.35262684358986
C 22.752099551444132 32.27004472508476 293.9291711292283
C 26.096929617514025 32.15731116175934 292.0934540530612
C 25.907426555577523 28.378082610502815 291.70118069280517
C 22.23693560596617 28.563551631983348 290.67392700572873
C 22.988544776588892 31.204619003130716 288.04091204348
C 25.89903706714742 29.071610310627303 286.8295071175488
C 23.477405534463724 26.23456350192345 286.04015172809915
C 20.886603545869853 28.4628985873201 284.3433257752421
C 22.834352964167966 28.603886524019916 281.07112386520646
C 24.4488386903873 25.165131158851626 281.1765617022875
C 25.207567922509686 22.32648855323026 283.4978148021902
C 28.6280318225511 20.80211243910227 282.9212168793107
C 27.852508408723487 17.07777282067802 283.1816609499579
C 28.973173429641637 14.508669419232367 280.62601112228515
C 27.53525661456527 11.00128066508668 280.3774592875644
C 29.45849571267317 8.112041979598143 278.8387977514926
C 27.724993987303083 4.789369073443568 278.14334875978705
C 29.90024815745816 2.0293963283435423 276.7090564148141
C 29.37120658064979 -1.5390511878935407 275.59939692748907
C 32.50639924016224 -3.6902991246903145 275.65358644568096
C 33.2849053012398 -7.396721133639302 276.05825772814705
C 37.08964118320645 -7.497496797543429 275.83016439663305
C 37.55331281227146 -3.9901384333366283 277.2470602672257
C 38.772342987661084 -2.0693687290481995 274.1914246902537
C 35.76613764589552 0.24814769600038175 274.21764838117036
C 35.94430295609273 0.45123296754808395 278.0247932758316
C 39.56646466682685 1.591411461040984 277.80042250267354
C 38.54569394322403 4.046113020263604 275.07394592271737
C 35.768444411344454 5.49178639827541 277.235296918045
C 38.00741441467083 5.723661057722897 280.31200118496196
C 40.5740847671336 7.6230660814661615 278.23415680572583
C 37.92777407992971 10.068274168106633 276.9934769719427
C 36.65243322647106 10.304449145329855 280.5728253515899
C 39.882196020759125 11.747848618426701 281.98663091812233
C 40.370490869139985 14.3066138426525 279.19579428834373
C 36.88469469956314 15.692750258889994 279.8513311166147
C 37.41802153356558 15.488247501868432 283.61708752276337
C 40.47441590799441 17.734980005474522 283.2829804126803
C 38.615126930812174 20.121926775678745 280.96670013105654
C 35.939697862002404 20.944666193146393 283.55180392245916
C 33.16477670567952 18.39423330729548 282.99648599167375
C 31.501547768675216 16.43516824832934 285.7899187007984
C 32.0033323281693 13.09905236341849 284.0370536545994
C 29.706547077971358 10.12740744856898 284.7287184151756
C 30.86621938937341 6.879683549217174 283.1011505028152
C 28.538508447967843 3.8679343820845906 283.09792046729825
C 28.48880819303917 0.4214289407717681 281.5230952068862
C 25.542154227371892 -0.11361418661150952 279.17550240014805
C 24.560669954278982 -3.287594260237729 281.05242824519297
C 23.74970961455696 -1.2577806959627607 284.19281727311164
C 21.52713715339174 1.5421477979709253 282.8251815197089
C 17.83673320110194 1.9732630330435421 282.06981953123045
C 17.02560006996505 3.8034273048678005 278.8446956901259
C 14.086696734951172 5.826851862743084 280.1733920449983
C 15.234970331343517 9.382307875026058 280.8311813535951
C 18.871587691607097 8.272078167254666 280.83858738570746
C 20.279559672105865 11.429067679350931 279.23796789567524
C 18.39380138281416 13.82774664227444 281.52003789041464
C 20.58400386918378 16.1610932985273 283.54994025387793
C 23.51023485985581 15.806670711681349 281.13182419547024
C 24.27209079155651 18.2487536838236 278.3258956583802
C 26.943807404962662 16.02066190930354 276.7801480348737
C 26.37730916958613 12.312296509093144 276.1255648040886
C 28.950003211313966 9.982067600207628 274.5683813538796
C 27.77580029016497 6.545245106493153 273.4732470372211
C 30.446904671166706 3.938432457881563 272.76058669801824
C 29.878316124212198 0.47505355614713685 271.3536740717532
C 31.92787337058816 -2.2318731328882313 269.65526629951967
C 30.773680756860156 -4.117504410755421 266.5607256417174
C 30.214600586751178 -7.888798989104855 266.5778985743213
C 28.937268132533227 -8.765774649747186 263.1196903697804
C 29.788538961064564 -12.468290765693762 262.8496575707519
C 28.294843785681497 -12.58558051001826 259.360465261074
C 25.967072939496376 -9.574475552645254 259.73310148010256
C 26.263850160788135 -6.335120565544038 261.7297160301854
C 25.564956865044845 -6.437317151981293 265.4581046814524
C 26.0577652750966 -4.147327693279588 268.4315075507649
C 27.849405694205757 -5.3304826742391445 271.5430653968953
C 25.23641417827389 -7.289379163232523 273.43702540907924
C 25.100328224986807 -5.094428978385553 276.5387981829192
C 24.2483495810297 -2.0841295173742607 274.35734641898017
C 21.3109156928445 -3.5561878955812976 272.4233808204984
C 18.65398808928025 -2.9485219528526945 275.14285089437925
C 19.647324325475754 0.7230985129346049 275.1875004084122
C 19.761218549990218 0.9002196420303176 271.3987645224312
C 16.289458261281336 -0.6174649962806723 271.07569454555875
C 14.796012009694893 1.9648133525636835 273.4644743343478
C 17.011096060050676 4.898162824479312 272.51239218164585
C 14.027962840235643 7.178806882953748 271.8344180510942
C 13.253811512048696 7.111201609834893 275.5828770150775
C 16.623726371811994 8.563846279157742 276.61427248526724
C 15.885927060664592 12.226435125519789 275.88576144061483
C 18.29322057042713 12.563324050316693 272.9440957219507
C 16.317891100461885 15.151729525989573 270.95885480397783
C 18.050428778813632 18.51410805246112 271.12137563304447
C 20.874674064592522 17.135809572633455 273.2508321450178
C 24.570355545381258 17.15745481585001 272.3449387780281
C 25.884957570771814 13.648919864124009 271.62891892627937
C 28.78096727160767 11.891185967841384 269.92940489665045
C 29.687406370790555 8.266535599269012 269.32730537363494
C 32.81064276350399 6.1354658139128615 269.53838318777196
C 33.545749280257425 2.453562314152697 269.13687234511747
C 36.198235039032575 -0.21158893075124266 268.6383189083519
C 36.25021531158827 -2.3886795916076977 265.5406793201216
C 38.55979856298116 -3.9601815294782385 262.98065553697387
C 38.848254479867094 -3.084197031576463 259.3035297493289
C 39.08900930474212 -6.6959204522802045 258.08421513534404
C 35.32199274127025 -6.966129773411486 258.60207164470916
C 32.95900249167413 -5.7333559709475574 255.92720425725273
C 31.38620745781931 -2.996553707797685 258.0695252044254
C 34.18067996249867 -1.3661227618461 260.0560550018699
C 32.63037384162455 -0.06012428983338994 263.28372795154223
C 29.143288259644535 -0.5660326103032185 261.87895429957626
C 27.876942579615157 -0.14009737476258705 265.4407617213333
C 28.75762760942988 3.5610149485933666 265.63948242664986
C 27.151870549291004 4.040273264518677 262.21869782611924
C 23.913605681130893 2.494426237540063 263.4755058569067
C 23.958980699263602 4.522953329003983 266.6975158863245
C 24.68370346924052 7.816320815839658 264.92479007823147
C 21.943813144242757 7.2444322735255335 262.33587357818027
C 19.399527080795124 6.6062215274246805 265.08583136381844
C 20.653284873136077 9.6334866965026 267.018002364889
C 20.150366364785988 11.723175592186292 263.8757416305853
C 16.654258340568774 10.303147792754409 263.4243382950911
C 15.897532678303035 11.279185291327066 267.03775423111256
C 16.88703136471457 14.916309403699652 266.5536247172285
C 20.002549402112592 14.773130924974211 268.70407409302146
C 22.621249980748217 17.467833902353085 268.0991525776817
C 25.626674212132915 15.411405594650127 266.9974028542601
C 28.631056633488765 17.554976059411004 267.87927588192514
C 31.11312495876415 15.821233692222652 265.56212273040063
C 31.815160955125855 12.650662806193647 263.62076209610365
C 32.21047831415802 9.384731409801331 265.45207469989487
C 35.479107048433406 7.949794831868791 266.7158229347355
C 36.23175426512415 4.643856665003084 264.96406900774684
C 39.188140413687385 2.7656695036452055 266.4546381473541
C 40.864960488865464 0.08923468682629081 264.33770847800037
C 42.65046856180953 -2.71152572879887 266.1430177051662
C 44.083897705183176 -2.0826644144373683 269.58780167522906
C 42.93360553092155 1.2421195260192903 271.08992162984583
C 46.10787283160149 1.5639226869858123 273.15971848634337
C 48.074268984113544 1.8035619655026522 269.88770864538407
C 45.796746720587 4.660940465638284 268.71418654893375
C 45.68495062756002 6.772068394510958 271.88724094051526
C 46.60034219406477 10.039563868343341 270.137309113388
C 43.34811635031863 9.871316810387562 268.16427220005613
C 41.18960110124794 9.056815219250268 271.19912988771756
C 42.61822971118855 12.035894885809368 273.08033660779046
C 42.394938828833325 14.194101745479246 269.96065973556574
C 38.74863721305381 13.242093639975122 269.4646070912986
C 37.941488096020066 13.922019615087951 273.12292709082124
C 39.534361936089766 17.34958916808387 272.69900520083826
C 37.226014137193225 18.169904389382793 269.7919264503335
C 34.14375032767926 16.885943043865662 271.63241685938783
C 35.20610236949896 18.977821851426004 274.63998043055983
C 34.08521933428134 22.16854342652934 272.9040504126206
C 30.436507418734358 21.087902983264506 272.84871816745414
C 29.832936750288145 23.380181508084526 275.84741792222724
C 31.675981381564508 26.738628941040012 275.73080695353923
C 34.7294853419593 27.182385761891197 277.94709807880486
C 33.184279860275005 30.142076368212017 279.77876742660123
C 30.155457545302863 28.112543828599602 280.867873557311
C 32.265066303491906 25.237576276805587 282.18255329839553
C 34.74238577906888 27.624316574354832 283.81195381729117
C 31.955720863599403 29.556459149508385 285.53119833844187
C 30.594636545090083 26.263743331704553 286.8901013532044
C 33.87046238200053 24.976022539889925 288.32005193147205
C 34.54939964878539 28.404907599144146 289.8181343050334
C 31.10319982763105 28.291542053531625 291.4153406046416
C 31.60040422414989 24.67066295577463 292.50214567719155
C 35.04295183154909 25.431588813050816 293.9414641970652
C 33.79257548833868 28.377478060336408 296.0010982491762
C 30.961678409977107 26.43191697167786 297.63273415637434
C 33.452260585369885 23.751854366925752 298.6652604387155
C 35.77195377327741 26.322494362139906 300.25986318250926
C 32.744385062750986 27.736293020984537 302.0772415629307
C 31.37347716245148 24.416686245159056 303.3572734121812
C 34.81582412493687 23.398302132529498 304.6184439964699
C 35.141471842065734 26.75949133158247 306.36656596199055
C 31.766025522906258 26.335245053325302 308.08222292861444
C 32.598372793650775 22.777964788095655 309.15326841139165
C 35.91931849799709 23.683319771871894 310.76807934726537
C 35.462244569341976 27.198953053329227 312.1391538006713
C 31.708702330804826 26.95672932518094 312.69379366574526
C 31.84511322592975 24.951431797601064 315.9319515537215
C 34.36897774846514 27.347697416650554 317.4813686648675
C 32.092516767820136 30.260338037012314 316.5729115858406
C 29.198992863906852 28.479948530257047 318.283111849905
C 31.38244171046912 28.18290298195286 321.38727735386226
C 32.048410846311135 31.92717300765483 321.29581866273895
C 28.30469193621989 32.51784311917203 320.9528881741207
C 27.759268879975984 30.437793764178643 324.0925685273671
C 30.32691021062963 32.64750301340845 325.83677254059404
C 28.879542862173654 36.088977723652 325.09301359372216
C 25.14412384309171 35.64084768837997 325.66938105434235
C 25.15685666699184 33.22621937084528 328.5998410743166
C 27.77632429296038 31.385314439282617 330.6233481821298
C 29.84211349464619 28.392334629349747 329.5252645724273
C 29.400306653082527 24.75441710407225 330.5059835671802
C 32.00134557498472 22.312933264561234 331.761353683175
C 31.271712693619083 20.317962473395166 328.6009618510444
C 31.677698573914597 23.21467927964451 326.1618753030992
C 35.08055560948698 24.05371542344453 327.672203407848
C 36.15599376356442 20.466203657536532 326.87507701503426
C 34.97590805362775 20.18008380171407 323.2625662428194
C 36.63842953433304 23.563167303606466 322.69857844902106
C 40.045312584623886 21.861756954572677 322.83588340495214
C 39.01182511851618 19.739652879432946 319.83993854192613
C 36.951562988681154 22.379505812664434 318.0307431645924
C 39.978549902057665 24.68556921306474 318.01864558043235
C 41.947140862485945 21.901984006761815 316.3178645166247
C 39.25828611089887 21.840080271817662 313.63075374847836
C 40.21170237892781 25.462507471143063 312.9634213938513
C 43.74942415715613 24.344255811764732 312.0848947636833
C 42.8623495785517 21.582719071118415 309.6302398458996
C 40.819715205622934 24.101415359296613 307.64955702956405
C 44.1613244286068 25.70998874991883 306.80070486817004
C 45.53822417558132 22.2697572655859 305.858670578669
C 42.823815356186756 21.07269796408746 303.4790158498757
C 42.50310528623893 24.392126089573615 301.634747281475
C 45.893435858111204 23.890199931616106 299.9181772368342
C 44.626338268621346 20.373208275502662 299.1826114978655
C 41.43708210758031 21.807834928245406 297.6652008999047
C 43.40258708407194 24.220631867283092 295.4793620471585
C 45.47707445191742 21.336160651767596 294.12194968669473
C 42.51638368882282 19.144145730519952 293.1734131845347
C 40.427093540400605 21.788274154097838 291.37616224200633
C 42.84240611321356 24.39903839358236 289.98979359274364
C 44.19360707515306 22.60486228607876 286.9258436577625
C 46.4525866442477 25.57525129136481 286.1381734132534
C 48.109379323920024 25.45610402458683 289.56628557565006
C 49.1140952582531 21.82807747733924 289.0093939239332
C 50.92459857057178 22.78332578235878 285.8037919726812
C 52.64348026914425 25.765890396206256 287.4338103326866
C 53.75727919283515 23.322566544246705 290.1373421961033
C 55.17188216215704 20.868929937449508 287.5899357835787
C 56.8745573188104 23.841864338792234 285.90286957020714
C 59.22890250659537 23.841047475509693 288.8992493823467
C 59.368436931893214 20.02652746248894 288.64765619699824
439
Mode 7 - Frame 3
C 49.17703246647343 36.02535700171029 337.39846108619474
C 50.604963477261556 33.8412909803922 338.73607375153426
C 50.447164068582794 30.602884549351558 336.7856660027821
C 50.21723002954803 32.97854439231085 333.8211414444142
C 47.47520747682203 33.90053373237853 331.3684553148883
C 48.995502449526356 32.16682316146349 328.3483357513257
C 47.88139841600199 31.348559799434497 324.8197932349053
C 46.969180197753644 27.672805912562126 324.3400524312295
C 46.67585618717031 27.165228620916952 328.1212626776972
C 43.32624636893969 25.374979273653903 328.0926415721103
C 41.54658834918917 23.321119394349644 330.76674905027807
C 43.12497770489818 20.076610907039143 329.44831688049226
C 40.952997529154906 17.416006611838608 331.0542269767342
C 43.228815608006094 14.367897188971881 330.748914683483
C 41.85403677410144 10.856869125895173 330.2850266021002
C 45.35321631245155 9.427420770022383 329.7159734217149
C 48.91379778226212 10.600063538073991 330.3706397333586
C 51.72228350692135 11.017916820623803 329.3628491884128
C 51.289464773538626 9.243705640941645 326.02360358894225
C 48.54403563334564 11.74289800773995 325.23901756079624
C 50.77825683731087 14.61809092372315 326.33506112451937
C 53.71058501848567 13.21300161556292 324.3545935080411
C 51.86457991174298 11.817315274799585 321.3297539560481
C 49.369304169996525 14.67673983891373 320.9633870764349
C 52.24210044601918 17.148703519950033 321.26658168090876
C 54.31067891262305 15.651070549969027 318.43974254511386
C 51.145257288166164 15.001923437882429 316.4266802208105
C 49.81083401508278 18.550010170674014 316.76674135710266
C 53.22155812486995 20.11985469103221 316.14529446286474
C 53.759732918217054 18.006856813594815 313.018949715287
C 50.287075212641156 18.89426051632653 311.7395534162049
C 51.01424304038675 22.583918627117455 312.26679128071686
C 54.404277952498205 22.625003980386083 310.5457528556245
C 52.9408245826129 20.66090169013224 307.6287712326198
C 50.34293482894485 23.408993999284515 307.16668949472046
C 52.901648399238205 26.224982595583388 307.2567778008989
C 54.96170277733844 24.514430667478052 304.55639480595784
C 52.05406168426323 23.501725541898935 302.326942330663
C 50.54255435943292 26.995249795363268 302.4864097147735
C 54.033844297717295 28.384942290539296 301.92509886550437
C 54.11713866384121 26.111357813092138 298.8704417907432
C 50.91317609833987 27.679257847441704 297.52131861323494
C 52.34529496612091 31.155928967283455 298.11299283775674
C 55.436037655574125 30.11155754269636 296.14099043286967
C 53.92906179745581 28.83005334268763 292.88247154836495
C 51.73516364283527 31.93650571404776 292.6120714390661
C 54.456549160656515 34.54761689449618 293.12078840156215
C 56.82652244393075 32.35963788916261 291.0856349448206
C 54.76941106979572 32.23412522359024 287.87743935612525
C 53.534050964326475 35.305642082378284 286.01271211414803
C 50.65477634399341 33.48528364201039 284.3036212374729
C 48.94767796472596 33.381678618298345 287.73290169779034
C 49.92571147687051 36.60275357980812 289.53672037967596
C 48.21926126053617 38.484298187343654 286.68564889778537
C 44.95444857951584 36.553002432954884 287.1511929435658
C 42.397110061485634 38.11765044286275 289.5396981464343
C 41.28557812719556 34.62052482492368 290.5873231378903
C 44.71152403005546 33.858789133338135 292.0904602353965
C 44.67520150457807 37.077346251154076 294.08791516091253
C 41.855721533824465 35.20096223666614 295.85480888610925
C 43.724832099063526 31.925250720279703 296.4371070971092
C 46.93676254131733 33.68724528424903 297.43427893010977
C 44.946968861493794 35.80805555128643 299.88141269268624
C 43.414884822238086 32.67926131662525 301.42343648551054
C 46.737116293261856 30.835286464645574 301.5292044035042
C 48.53702627187911 33.71402061549608 303.2551881023256
C 45.60153476755254 33.89358816461156 305.67168922193747
C 45.87518357578765 30.148941619500857 306.30652044501534
C 49.63077731954626 30.621144906725274 306.7187014131453
C 49.32588111827918 33.55957094377267 309.1341184687524
C 47.29257240212244 31.327342443864776 311.438063498555
C 49.28730405301218 28.12457911736682 311.0028352233223
C 52.469265690102766 30.083645354647714 311.7637429851443
C 50.96148232536349 31.497605999235482 314.9618871180579
C 49.85060446899261 27.9860716588603 315.8940519703734
C 53.30684394251864 26.42271775471609 315.614811655913
C 54.936719587148644 29.462215603586227 317.2233004764954
C 52.62201906255032 29.54546861685668 320.2446846537226
C 52.713655566394046 25.745649144806613 320.5151649771534
C 56.51653221247081 25.537213286876778 320.6462122504504
C 56.69702941482714 28.714140820692336 322.7553230043879
C 54.50362076305486 27.257244337576253 325.53156676283714
C 54.42264509179815 23.447754393908575 325.30377291237687
C 58.22404891495966 23.25178011562371 324.89090296628433
C 59.70528089944345 26.345080168456136 326.556305327943
C 56.794503292053165 27.037671143488737 328.9487163759459
C 57.38115198897354 30.774819188976046 328.5537949380412
C 54.85671433880999 33.29152897997771 329.8603786572699
C 52.676116047522655 35.66208570632547 327.8541820068779
C 52.15601266643349 39.27121643404369 328.88947640662496
C 48.986340218203765 41.13613212676087 327.89784146122383
C 50.25298108905102 42.41543568018509 324.54272916476185
C 52.12406238022446 39.256206335430484 323.52034511484203
C 48.94623568183886 37.277284880550525 324.2201638289232
C 46.58151209614827 39.51490353785652 322.2415302601088
C 49.02381489843284 39.66511270455678 319.32475152452577
C 48.92299023399081 35.86982310752089 319.0413390996461
C 45.13559836787532 35.79296337837033 319.39252923403177
C 44.73251402151017 38.76356787846565 317.0590503881407
C 46.82667768999433 37.00897827860028 314.43262259371005
C 44.486686034855026 34.01771875690212 314.5258388297946
C 41.526592804001254 36.40356864932798 314.5637175660709
C 42.99498241422471 38.22579017890527 311.55516014591865
C 43.546036957804404 34.93470627978784 309.71512106067473
C 39.844826350267866 34.07114314761822 309.87589724341683
C 38.75151107134617 37.65192762398929 309.20896999333746
C 40.73570605499273 37.85138302498265 305.970397485867
C 39.430850332500185 34.39181958872578 305.05130231268816
C 35.83047665194876 35.59519970478403 305.3427342739552
C 36.83476287563828 38.892967447146376 303.74264333368814
C 38.28068184671549 36.97238784845424 300.79433413498805
C 35.10324531822232 34.92292636047007 300.32333664080085
C 33.23799892009556 38.23864525265058 300.3646673698894
C 35.339986585662935 39.719533680131576 297.5557705728591
C 34.90973933569811 36.50405784431419 295.5764658379603
C 31.128359290056814 36.85044379341289 295.8249181832629
C 31.437633252549933 40.36579432013064 294.3829707208685
C 33.53975666907531 39.099781118065074 291.47665599395657
C 30.902316485168217 36.47414521844829 290.70716299769987
C 28.136069335122226 39.06930761302404 290.98755248384987
C 29.930263729547608 41.14907581847062 288.3456233444763
C 30.388888060453073 38.06711759750712 286.15143118265905
C 26.658206261177135 37.32799831503846 286.4060335922162
C 25.321501930019917 40.861991844993064 285.9181374035073
C 27.989877791719024 42.12912893324061 283.4678122359124
C 29.125654728356302 39.033802838504364 281.54671633383134
C 30.132863308904636 41.05071136288042 278.48040560141516
C 32.40575154656658 43.60828425382597 280.1707484021947
C 33.45465723248165 41.47468864698356 283.16321814698233
C 37.03727638723989 41.054271658174414 281.93541252636084
C 37.59888899148484 44.82019100376767 281.7408112538555
C 35.87409296357026 45.59282361726026 285.0677952822686
C 37.65798057582694 43.12886518878998 287.37523142523213
C 41.33064683535047 43.71148285691139 286.55672191453846
C 44.64763337018079 43.03154838076608 288.259875136072
C 44.97014103216111 46.58482736943012 289.6716179721996
C 41.327671004882866 46.513947919478014 290.7841647442288
C 41.731362062070964 43.168086107144646 292.5496277373306
C 44.90719288340135 44.217959816889646 294.3792831037404
C 43.231211704092054 47.343074299661396 295.76308786664487
C 40.183427678983946 45.39282743240799 296.94026853278075
C 42.28652017131556 42.77735659208524 298.73125170553027
C 44.73452632306326 45.27913312220373 300.23035129897727
C 41.80863268021339 47.25986968788507 301.6392280273944
C 40.13321251085579 44.106907562107004 302.9093506325435
C 43.23133460031681 42.970480235195694 304.8025138019499
C 43.71063516171312 46.34781464222769 306.4808052456494
C 40.091061451452404 46.14286715858425 307.62317656548873
C 40.74499212422667 42.56509862256874 308.74570349259403
C 43.97578597589765 43.49247042388632 310.5447285781885
C 42.35307754641479 46.488604055512155 312.2302807712082
C 39.868129914409195 44.266853849025196 314.05788738726795
C 42.62046091169642 42.07893092530473 315.50110932869205
C 44.5839010667552 45.11560117098807 316.65984480206413
C 41.48715014848949 46.80206710979646 318.1811644897159
C 41.452931315638416 44.33004590648932 321.09963389880363
C 45.23363353982762 44.50545512711741 321.31429911550595
C 44.99966039634274 48.2815338800835 321.26539609251535
C 41.955473025768974 49.30476087742768 323.32499061084036
C 39.114000921200756 46.85480012530975 324.00943855628344
C 40.158592281506635 44.85948660713189 327.08416529520133
C 39.32696369305329 43.47521744479083 330.4826066830687
C 42.3273098061042 45.246096733081195 332.0036115797497
C 42.02321961375864 48.58396381315021 330.2173091716589
C 38.214094787146166 48.82151975751371 330.37001094789133
C 37.55772033126796 46.883687680032686 333.6101228558358
C 34.81582694959279 45.19519515252632 331.58467839273317
C 33.32150130523805 41.72144822470563 331.8607343016963
C 35.911570550961066 39.16324723715228 330.8295002733782
C 35.402982429511205 36.24865946505273 328.4492045543412
C 35.179174541447956 32.809276481283845 330.0488367144222
C 37.262269847298896 31.37594740639138 327.17643481029125
C 39.98407368458288 33.88130697844982 326.31827401668
C 41.99432657991542 35.90954348814001 328.85078447672987
C 42.128852187509146 39.70452868631809 328.50731732638474
C 39.23968652577429 39.66540450014329 325.9860907683176
C 36.26344979438167 42.00455547578092 326.30250487601677
C 32.84169453407791 40.39443353952188 326.0016050733617
C 31.357880468020042 43.30878319775399 324.0639125937324
C 34.21870595187726 43.16562571269581 321.56752780634775
C 33.24670645991742 39.58690861140371 320.70581061955033
C 29.648405588074763 40.614809609229276 320.0337351278621
C 30.99137214039932 43.118860646721345 317.5030892806932
C 33.39718440858408 40.5347800510894 316.0735333630715
C 30.85628275357818 37.69491720595186 316.00711073622887
C 28.145004646633485 39.88731108709787 314.51410640665256
C 30.429299076563247 41.17705110870083 311.7581318775004
C 31.53752172652614 37.73731013022834 310.5697319570923
C 28.07886033125886 36.21896112052362 311.0941753803078
C 26.46354959782427 38.83873093664437 308.84547906675476
C 29.194177520887926 38.43343559206897 306.23504828742074
C 28.910872650454767 34.636062668918036 306.298162927275
C 25.109842908526762 34.762240081386544 306.1059648697828
C 25.454392251421126 36.8752981234257 302.96541546846305
C 28.230496200047448 34.70243934397185 301.5087611002026
C 26.103053156437934 31.585045505548177 301.99018717067685
C 23.183633784713617 33.222278597996656 300.18347876170236
C 25.45729306966921 34.63069786143634 297.47909168396865
C 27.293885479922338 31.37072205323527 296.7853897584791
C 23.95093788952523 29.594821137907086 296.34133261977775
C 22.756149988407465 32.28208300574276 293.91900943031675
C 26.10134953755706 32.16991316492059 292.08386341549766
C 25.912067675128384 28.391028004711973 291.69013300107184
C 22.241358191618392 28.577150924238047 290.66276639155984
C 22.99368364416013 31.21869340886496 288.03018989414556
C 25.903949940602246 29.0856808471118 286.81860472559816
C 23.482037296993322 26.248613202688137 286.0299813932619
C 20.8913234482076 28.476652318035782 284.33278778821864
C 22.838516201445678 28.61496413563605 281.06049600299775
C 24.452327886693713 25.175427413715674 281.1679092318835
C 25.21227196800266 22.338724392848945 283.49105549247236
C 28.63294236150549 20.814180860955826 282.91508166903657
C 27.8585213378602 17.090135194817112 283.1810649054364
C 28.97814700143861 14.51831501738867 280.6277965727074
C 27.54071233894743 11.010308094187158 280.384785726362
C 29.46361274067363 8.119627789131334 278.84850047353393
C 27.73033280975037 4.79576510588121 278.158638248191
C 29.9052549924673 2.034469117903814 276.7264413977102
C 29.37619490878609 -1.5355129736674598 275.6218298550013
C 32.51191845074957 -3.6859810234990347 275.6765488573642
C 33.29154002202379 -7.39170062933287 276.08552506850987
C 37.09615833847619 -7.491931310749816 275.85471944339054
C 37.5601289263643 -3.9826329300937138 277.26667258944633
C 38.77650178414712 -2.0655267353940787 274.20763822700735
C 35.76975991474384 0.25132931349662374 274.2330712385138
C 35.95066955805092 0.45934891547819984 278.03983550449317
C 39.57245812535602 1.600051985774033 277.81129356683243
C 38.549118708963285 4.051059702341981 275.08237922474876
C 35.77309347894186 5.498813317292812 277.2438864568379
C 38.01427575452194 5.7350834335792396 280.31867858597855
C 40.57901887304019 7.632443118957182 278.2364522283796
C 37.93123451651239 10.07551820562335 276.99457953384103
C 36.65841269011487 10.315777193702582 280.5745281108493
C 39.88896014804125 11.761580106743503 281.9842410060668
C 40.37471549135514 14.317124952097094 279.18991609721
C 36.889010051775834 15.70332209059921 279.84613700601756
C 37.424707992252415 15.503046792947027 283.61133985757255
C 40.48083278765701 17.75010535215048 283.27273382108365
C 38.619634679918114 20.134357679022756 280.95588365422503
C 35.945349996607675 20.958761604331837 283.5414787706698
C 33.170463935569 18.40724578040001 282.9904705700144
C 31.5093587175228 16.450822511492024 285.7872117630749
C 32.01104737908236 13.113319668609245 284.03841291230987
C 29.715247969177526 10.142277935907304 284.7357150732222
C 30.874774418223858 6.892896436213889 283.11145536815917
C 28.54763726890144 3.880813796133309 283.11390956185727
C 28.49762531306484 0.43230287068848045 281.5436133314279
C 25.549344876280568 -0.10632045299942068 279.19887252597556
C 24.569870665693823 -3.2780660323802477 281.08066173674763
C 23.76070847936537 -1.244329331153177 284.2189983061611
C 21.536545826766815 1.5533417091294273 282.8492990634698
C 17.845516940348748 1.9827277385865438 282.09600156942474
C 17.031653799803117 3.8085138828504603 278.8690421039443
C 14.093238617685943 5.833017671817307 280.1971581739044
C 15.241188873742137 9.389566916332047 280.8495121996622
C 18.8780810364338 8.28012520971903 280.8557635920675
C 20.284260045138634 11.43532955377201 279.24997197764975
C 18.399499597110832 13.836536364521864 281.5302926291746
C 20.59068246501436 16.172708075530224 283.55570028314355
C 23.51523577577098 15.815871760234845 281.13575206463213
C 24.2748019545636 18.25487579101571 278.3262943382307
C 26.945947300635325 16.025407790659113 276.7815493035948
C 26.379672413188665 12.315989491907056 276.1320479611108
C 28.951785140365924 9.984323315263737 274.57611822735726
C 27.777491893959958 6.545799334401432 273.48626562185746
C 30.44864273754507 3.938624955654593 272.7750918488464
C 29.879792213683917 0.4732968957058512 271.3731144887511
C 31.92870725449144 -2.2353776604095605 269.67675083146145
C 30.772648403980096 -4.1252960599131185 266.58553051263914
C 30.214422797967124 -7.896721762422075 266.60812192070017
C 28.934716735577137 -8.778582962954546 263.1520466636532
C 29.786553241536534 -12.481328814962314 262.8864505140006
C 28.290323001757613 -12.603643905645834 259.39850797720794
C 25.96220903273831 -9.59249222913224 259.76875664374626
C 26.259777339487016 -6.350308479007451 261.76074837143136
C 25.563602289889964 -6.447696197019337 265.48975514596043
C 26.058105918100534 -4.153705306375709 268.45977634320457
C 27.852257028224372 -5.3324780241796645 271.57158250054033
C 25.241049788378664 -7.2895479382300135 273.4699759621918
C 25.106706074759057 -5.090613803211939 276.56897684258485
C 24.25251131238831 -2.083296918974979 274.3842081129376
C 21.313994039958242 -3.5584971571040667 272.4542639515646
C 18.658879161466654 -2.9478640372580904 275.17483351684467
C 19.65147481495834 0.7240326133032373 275.2139855219967
C 19.762651206745748 0.8963112860316689 271.42492207483906
C 16.29099761950232 -0.6225683516498692 271.1062721985583
C 14.79868810493339 1.9625046466213292 273.4927283413331
C 17.012474193483623 4.895119427381793 272.5352681215691
C 14.028391424403136 7.174269672706717 271.8564152563451
C 13.256843485695704 7.1112913513933025 275.6055236415314
C 16.62716557232335 8.56600347870276 276.6326438963111
C 15.888120218070092 12.227519060533098 275.89989924882053
C 18.29331875181734 12.561242668662636 272.95615670258377
C 16.31606212694929 15.146712757327252 270.96902804640524
C 18.04794888951769 18.50970490026215 271.1259940857077
C 20.874083857721512 17.134834558862128 273.25520867762526
C 24.569178432772866 17.15632189099949 272.3466920262199
C 25.884048434657622 13.647103694033758 271.63422433719563
C 28.779172203769033 11.887707747526655 269.9349266250815
C 29.685806756933562 8.262322758801883 269.3367889260296
C 32.809593498834914 6.1321121600538415 269.54834650208096
C 33.54519255375204 2.449806490049638 269.1510595196793
C 36.19789453585536 -0.21541207772765364 268.65404023404267
C 36.24808552761816 -2.3965492181254535 265.559231823491
C 38.556147899115196 -3.9709453304666615 262.99964257877593
C 38.841690881632985 -3.0998641068792563 259.3211254252055
C 39.082336572954034 -6.713244914866434 258.1065671426452
C 35.31575776157237 -6.98354741004619 258.6274756550834
C 32.95054622760367 -5.754880417875114 255.95266729677277
C 31.37873267909263 -3.015495422897467 258.0924603561007
C 34.174305757180115 -1.381756777842293 260.07477473054144
C 32.62608899880144 -0.07175286183846269 263.301856977064
C 29.138075072342723 -0.5802911228904323 261.90029995257316
C 27.874246270947655 -0.1499334665832112 265.46246677786235
C 28.754345974784844 3.5516739795998173 265.6557216633113
C 27.14602630380413 4.026150904432207 262.23547806735286
C 23.90897891094177 2.481262219363127 263.49665189690336
C 23.956301358600957 4.514030056500658 266.71599564124057
C 24.679120226974312 7.805335496358621 264.9384955088495
C 21.937498221435256 7.229490442499911 262.3522869261292
C 19.39531044854312 6.594301762389385 265.10489667052786
C 20.649850678031157 9.624355714251875 267.0322474144891
C 20.144297694219702 11.709900005520312 263.88764499633334
C 16.648141585733168 10.288524457156873 263.4405133752063
C 15.89376366254524 11.269029896318436 267.05322420490137
C 16.882148951985748 14.905764129294925 266.56369554231367
C 19.999232955442956 14.76606720447623 268.7121193219432
C 22.616910004364428 17.460637969689383 268.1018912432319
C 25.62207794679949 15.40357388665721 267.0006980490522
C 28.626630593424665 17.549178779106168 267.8780633091285
C 31.10739395726959 15.812880341274168 265.56128711095033
C 31.80855572670028 12.639829715136111 263.6233269485788
C 32.20579484975732 9.376154480438258 265.4583396993349
C 35.475593699124765 7.943471757767584 266.7215307423291
C 36.22763875827481 4.635335489849671 264.97344734779824
C 39.1855321658923 2.7597357677345373 266.4642698256186
C 40.86138190224322 0.08088177860065497 264.3495970867072
C 42.6488966307239 -2.717101242628437 266.1572695831057
C 44.08474242102072 -2.0834052867540764 269.60017689324746
C 42.93476531762296 1.2430629798352268 271.0987892434192
C 46.110486975204516 1.5683395220781424 273.1658249262605
C 48.07438871564127 1.8042572352471262 269.892030205229
C 45.795298604900495 4.659578590699133 268.7164952110302
C 45.685373775561445 6.774769588035295 271.88690306423496
C 46.59871401354888 10.040259985089593 270.1321052086068
C 43.3450522664148 9.86878708115671 268.1617226136558
C 41.18897841657517 9.057623218544848 271.1991877039754
C 42.6183319613593 12.039409096097632 273.07559006635654
C 42.392240850599414 14.193701910021897 269.9533862769275
C 38.74580497812499 13.24035482184392 269.46131632352234
C 37.94126023481012 13.924699095676303 273.11933363789774
C 39.53318766814488 17.35207704599084 272.6901050177801
C 37.222459430777725 18.16852645600388 269.7838814632727
C 34.1418586926953 16.886362816175865 271.6281511648425
C 35.206147936712355 18.98219380209945 274.6324045963461
C 34.08353646581613 22.171010943731236 272.8942801046448
C 30.434952783833655 21.08964029831557 272.8423609681127
C 29.833798846074295 23.385603800701656 275.83914657664184
C 31.676863343843266 26.74425039720851 275.719147776247
C 34.73059162956042 27.191459972196697 277.9337879890024
C 33.18663005757324 30.15323848420594 279.7648650303644
C 30.15877708444014 28.12391402285369 280.85624402701626
C 32.269101940963694 25.24985116437232 282.17167146268986
C 34.74656362307621 27.638256361509235 283.7994697629044
C 31.96049298698026 29.57046240041433 285.5192682514128
C 30.599816261106607 26.278318204087334 286.8790183454389
C 33.8764548234966 24.991611944597494 288.30850179995866
C 34.55447391635702 28.419555591055207 289.8070659649477
C 31.108185149830533 28.305137082178923 291.40436409364906
C 31.605480528330208 24.68431180102125 292.49019214932855
C 35.047826764516394 25.444314405716536 293.9296524503303
C 33.79639265176248 28.38837385459462 295.9909041095386
C 30.96509626148131 26.44167276159271 297.620597450347
C 33.45549245273589 23.760692040098256 298.65157749444865
C 35.77460394603616 26.330281538408585 300.2486741590359
C 32.7463369633872 27.74265520057865 302.0662209660062
C 31.375024934054007 24.42188808391401 303.343151117823
C 34.81708121327837 23.402442743379012 304.60439763342686
C 35.142126995624004 26.76238078493018 306.3552446382624
C 31.766036883787454 26.336689507375315 308.06941353747555
C 32.59809360848477 22.77839423930415 309.1378085163454
C 35.918570019579406 23.682571860487613 310.7543157946842
C 35.46101805853475 27.197151656580765 312.1280941385795
C 31.707234456120787 26.954383216557908 312.681238323917
C 31.842492876186657 24.946282502618377 315.9176859921473
C 34.365851969424575 27.341330980609676 317.46995951927636
C 32.08963091971824 30.254701881952524 316.5630794826075
C 29.195428688221796 28.472803621328094 318.2706981397703
C 31.377741952854908 28.17306704891517 321.3753824385646
C 32.04369735029157 31.91745726978181 321.2872805718314
C 28.300103560318977 32.508425664623786 320.94349077465216
C 27.753601941397033 30.425683591069507 324.08124834555196
C 30.32063849448827 32.633928045178536 325.8282139195711
C 28.87355275499011 36.076059185677714 325.0867878959699
C 25.13794722007953 35.62742614356367 325.66153842284723
C 25.149670867435773 33.210292521726466 328.58997758464824
C 27.768456395560612 31.367649407876712 330.6128201689701
C 29.83459689057108 28.375568834853606 329.5129188428907
C 29.39243090373383 24.73679777132098 330.49039688088163
C 31.99304202583996 22.294208312985983 331.74459637001104
C 31.264462807929284 20.301921272823527 328.5822496240247
C 31.671332653000768 23.200737647001965 326.14579530085786
C 35.07368092664199 24.03845450459539 327.65804995281763
C 36.149314114011105 20.45160518874478 326.8581965499907
C 34.9705256271592 20.16854785643909 323.24501329543864
C 36.6332792319134 23.552113652007364 322.6845919341569
C 40.04011022497617 21.850520646399286 322.82158750866347
C 39.00774115027616 19.73104099424718 319.8234415639576
C 36.94825258973154 22.37260896401359 318.01593971892305
C 39.975233677926035 24.678700585510995 318.00691457195137
C 41.94453281446227 21.89663538892478 316.3044504624792
C 39.25663296636913 21.837000128474546 313.6164001388643
C 40.21023452566451 25.460062609762712 312.9524808441481
C 43.748277585357435 24.342589180335818 312.0741649226811
C 42.86206005976695 21.583039147580994 309.6169928601616
C 40.82003356145721 24.103380745679797 307.63778660488634
C 44.16191396476329 25.712654491651737 306.7912258746578
C 45.539214211523515 22.273210217685396 305.8469506975257
C 42.825513666243246 21.077905019229295 303.46566915792897
C 42.5053777762861 24.398859088743496 301.6239517924689
C 45.89630061883534 23.89830117443017 299.90801825657024
C 44.629604714737205 20.381758357292462 299.1695299436731
C 41.4406796549414 21.817554198585256 297.6523817032384
C 43.406854533949435 24.23204124974772 295.4688402056683
C 45.482003966264394 21.34869565918321 294.1099089185806
C 42.52189597712169 19.157119221020682 293.159798231236
C 40.432921801314905 21.803085308747487 291.3642160875549
C 42.8479283831672 24.414189730259217 289.97901871803657
C 44.19966392317476 22.621715732536114 286.91420081843415
C 46.458634397964616 25.592723018666828 286.12890298082647
C 48.11488966929195 25.471729700162285 289.55751019440316
C 49.11992428382632 21.844136460977698 288.9984411466853
C 50.9310967578966 22.801720917265406 285.79390662665213
C 52.64948067265345 25.783201480085452 287.42660390857736
C 53.762744967367524 23.337952973937348 290.12859201803025
C 55.17806145825499 20.886258622120813 287.5796693264575
C 56.881037143948895 23.860499198579618 285.89524438928953
C 59.23464573360544 23.85753822949069 288.89223839017524
C 59.37441804491271 20.04323187062801 288.6377104138313
439
Mode 7 - Frame 4
C 49.16805438903741 36.00509922311605 337.39884727099053
C 50.59543853805991 33.81995849750064 338.7353003045808
C 50.43822077535999 30.583030522210148 336.7824059608944
C 50.20936142467047 32.960979278511104 333.8195929491232
C 47.468125851433776 33.88481599546604 331.36672546630564
C 48.98929172988302 32.15329643250768 328.34578136000107
C 47.87621745286656 31.337606595271165 324.81630250869154
C 46.96420587008378 27.66218207291227 324.33372276567815
C 46.66973896515927 27.151809060365565 328.11445995613815
C 43.32023227723503 25.36149380725644 328.08382448951284
C 41.539871706999705 23.30555645579848 330.7558458676662
C 43.11862828816922 20.061970822402895 329.4354492751236
C 40.94612472525843 17.400149549854966 331.0386924736589
C 43.221630406402284 14.35201120504812 330.7311831291434
C 41.8466457161878 10.841504351507643 330.26362424045874
C 45.345872708946374 9.412201802621023 329.6945570037801
C 48.906343555580634 10.58395720896944 330.351513938526
C 51.71522197731422 11.002564652596593 329.3451003228424
C 51.28350840911639 9.231205103698317 326.0042039271597
C 48.538494468366075 11.731241256116114 325.22078457133256
C 50.77250982603099 14.605427908424577 326.32001141145184
C 53.70545337690451 13.20190087587074 324.33942019762884
C 51.86050417435293 11.808676260913138 321.3127728597578
C 49.365419863835335 14.668477356544336 320.9478948898707
C 52.238162292861915 17.140167124495456 321.25404837935616
C 54.30768659647355 15.644745673445055 318.42672313515516
C 51.14294647146281 14.99714555860716 316.41205845673926
C 49.80841132159225 18.544990902552822 316.7545145736156
C 53.2193268233666 20.115322954529855 316.13532838063793
C 53.75860507092596 18.004704459551668 313.0075709441586
C 50.286302151877976 18.893007806841638 311.72780558438876
C 51.013250025268206 22.58231123820845 312.25801376812404
C 54.40382279210784 22.6247407189628 310.5380224407335
C 52.94130684441664 20.6627258999589 307.6191954805654
C 50.34344623034168 23.411106921158687 307.1584137057015
C 52.90208409339876 26.227092503305478 307.25116848732466
C 54.962945784843704 24.51850920109896 304.55015563466685
C 52.05592818269752 23.507203582273178 302.3192619965812
C 50.54428676506921 27.000602089508877 302.48070311106983
C 54.03565333795429 28.390741933996818 301.9211602945957
C 54.11981844949574 26.119117479218243 298.8650079786441
C 50.916130091930526 27.687784031776648 297.5161165571514
C 52.34801606457695 31.164103910661954 298.11034780974893
C 55.439219370366814 30.120955881009998 296.1383447692177
C 53.933042833752666 28.841432922080013 292.87863148256497
C 51.73917159824012 31.948004861294486 292.6097114999379
C 54.46039470013029 34.55888111474255 293.1207324732399
C 56.83088954879947 32.37222922604776 291.08474551533186
C 54.77454167745688 32.24869556399143 287.87596960291927
C 53.53961501823925 35.32140628950327 286.01290033552596
C 50.66079643903276 33.502010362481805 284.30193524446815
C 48.9528791163184 33.39613091489483 287.7307612072457
C 49.93039285918888 36.61616843577098 289.53691078574445
C 48.22461658508168 38.499442871384744 286.6866133507047
C 44.95985341499517 36.567540318134334 287.15018668718153
C 42.40189679509589 38.13050941135325 289.53908973547794
C 41.28995994990252 34.632557650418825 290.5839724721854
C 44.71562724066532 33.87036319212749 292.08767443339843
C 44.67869084036635 37.08774599623425 294.0870997963179
C 41.85881969337328 35.21020322756352 295.852115237199
C 43.72795948249688 31.934303647795627 296.4329063884318
C 46.939607226206796 33.69576814796264 297.43197383366413
C 44.94907513911069 35.814942385059766 299.87993589197356
C 43.41670457365272 32.685145282981914 301.4195871521251
C 46.73899722559132 30.841177077963334 301.5250294142199
C 48.5383547833564 33.718783707324405 303.25338762585704
C 45.60220474081838 33.896651072877845 305.6692282576649
C 45.875760724331386 30.151569323677503 306.3016360492877
C 49.63124708908377 30.623562028965264 306.7151864172014
C 49.32558538274326 33.56025047890161 309.1325639006839
C 47.291666441754714 31.32637570242672 311.43437989317744
C 49.286591477846805 28.12393924542183 310.99750540076246
C 52.46827866160977 30.082494363123747 311.76076760422666
C 50.95949530252085 31.494065784107764 314.95947846040025
C 49.8483854168662 27.981861583375494 315.8887794369837
C 53.30468818647639 26.41867845108376 315.6094756041689
C 54.934002335318105 29.456986320662615 317.2207367615572
C 52.61832371213717 29.53792738731709 320.2414295415301
C 52.70986413904212 25.73789131774703 320.5091293725014
C 56.512708181012556 25.5293402566853 320.64124639474073
C 56.692543860181345 28.704662755752338 322.7527652438756
C 54.49823425575261 27.245679125601193 325.5272232365208
C 54.417265014911024 23.43632399670435 325.2965764257422
C 58.21877557398291 23.24062083050889 324.88479810862435
C 59.699540248109884 26.3326786238884 326.55294995482876
C 56.788028481607995 27.023575607144952 328.944941021379
C 57.37484863787732 30.76102709654517 328.55294779691957
C 54.85003099737729 33.27686724091369 329.86047874149557
C 52.670067510109035 35.64889268501223 327.8552873677237
C 52.14967249051005 39.257265025351195 328.8930384027335
C 48.9803509321259 41.12295137499506 327.90176425968156
C 50.24795413426447 42.40471398312243 324.54794384921456
C 52.11932122528494 39.24621695993372 323.52387240876084
C 48.941276019361354 37.26678763860273 324.22126438509025
C 46.577154120688476 39.50589138284741 322.2435206094616
C 49.02032989818167 39.658270343073085 319.32759329752855
C 48.91955157729342 35.8631685151261 319.0414287282581
C 45.132056135676144 35.7860815479607 319.3913475502622
C 44.72974243590769 38.75843170654592 317.0598566468853
C 46.82474230465968 37.005800775424895 314.4327871536283
C 44.48475285517966 34.01447265864017 314.5231530954044
C 41.524634982153266 36.40028287560878 314.5617927205214
C 42.993920512094896 38.224677466386694 311.5549381611528
C 43.54551809926472 34.934892959065614 309.7127742372073
C 39.844251825314544 34.07118098346521 309.87190538106995
C 38.75111752741281 37.65243712101914 309.20711186772047
C 40.73615698834716 37.85412739858403 305.9691809792798
C 39.43160371383961 34.3952079790011 305.0474175156153
C 35.831131264476355 35.59842425136943 305.3386993365807
C 36.83575745444208 38.89718785887641 303.74096318101124
C 38.282447948960744 36.97856957237364 300.7917793164436
C 35.10516035358978 34.92951473387444 300.31866797663224
C 33.239848829113456 38.24515932546525 300.3614076893466
C 35.342361861509914 39.727604143782216 297.55385973771894
C 34.912842200522334 36.51332410560297 295.57262426282335
C 31.131361703690068 36.85954775276306 295.82013891512076
C 31.440972391659734 40.375255241915006 294.3795269065896
C 33.54392136931712 39.11056011783052 291.4733933066012
C 30.90689346585003 36.485020454857846 290.70191981033065
C 28.140580990712078 39.07996145901812 290.9821479294325
C 29.93561970668615 41.16019702502269 288.34129477345067
C 30.395201997153137 38.07877847380831 286.1462588801932
C 26.66433998912903 37.339627663373705 286.3991703202734
C 25.32797812072946 40.87388379670104 285.9118301972755
C 27.99724626822624 42.14132143271517 283.462740650963
C 29.13402150017907 39.046437773726204 281.5413550871748
C 30.142606778845863 41.06411506033965 278.47601947796045
C 32.414408222241725 43.62157506059911 280.1680387665696
C 33.46223172569945 41.48702908635263 283.16036835774986
C 37.04527884490759 41.06782344923993 281.9341999951791
C 37.60652474173431 44.833985790278234 281.7410256791958
C 35.879932431942905 45.605728358080675 285.0672125456239
C 37.66299739812347 43.14204523101966 287.3752925940436
C 41.33583975902894 43.72588341113189 286.55876292074305
C 44.65229410784717 43.04543762683944 288.26274958127436
C 44.973614384273624 46.5979974154927 289.67653895346484
C 41.33075580895063 46.52582826107968 290.78790867725377
C 41.734629521878 43.17921003313209 292.55164385122833
C 44.909887000017214 44.22825742217955 294.3827940072883
C 43.23338216828436 47.35234491032048 295.76813304735225
C 40.185655228254326 45.40123985224192 296.94351127153436
C 42.28850785406416 42.784851621989716 298.7334327426424
C 44.73598700481572 45.28577614552415 300.2346731679255
C 41.80985716010269 47.265385827988425 301.6443102544791
C 40.13432593431451 44.111640772399156 302.91208644438615
C 43.231951666681375 42.97404324324714 304.80529274166827
C 43.71080304352415 46.3501444711047 306.4860400393073
C 40.09107769390044 46.14441792776381 307.6274522500183
C 40.74472572906048 42.56591763032347 308.74773962963013
C 43.974936465960475 43.49206613628086 310.5483572266438
C 42.35177647551341 46.48691352108335 312.23564125268757
C 39.86631405808927 44.26390777092721 314.06102938411976
C 42.61820391543961 42.0749479655353 315.5035170471778
C 44.5812317824334 45.11073811222427 316.6650900510162
C 41.48401807284486 46.79600563748149 318.1867585499209
C 41.448948459039435 44.321864321909935 321.1035018357131
C 45.229571977063955 44.49711739157863 321.31940013213773
C 44.9956059321184 48.27321696001627 321.2731658764095
C 41.95084040998772 49.294918074863226 323.3326532204567
C 39.10924352181201 46.84443906950404 324.0145764289942
C 40.15293393265385 44.84692817629721 327.0881736873488
C 39.32034625931163 43.46020904928033 330.48541017252006
C 42.32025522772595 45.22999917786495 332.00853087140416
C 42.016669823312554 48.56915269286787 330.2245273542118
C 38.20751200334212 48.80659126733498 330.3763573653995
C 37.55024563324366 46.86642475260424 333.61491297116544
C 34.808909059216404 45.179387924390426 331.5875008360164
C 33.31449734266479 41.705443573468415 331.8606640740496
C 35.90484920445976 39.147982402671865 330.8283109349171
C 35.396898575054244 36.235089468926795 328.44582254540427
C 35.17261283778199 32.79454800340805 330.0429786589941
C 37.2565262747344 31.363246457525534 327.17020621268546
C 39.97854257705874 33.8692296963168 326.3143817405904
C 41.988069375560904 35.89567852425813 328.84887731657034
C 42.122733908333686 39.690924123607985 328.50819414050903
C 39.234317400446116 39.65361730780275 325.9861147596087
C 36.258018097752206 41.99254387484549 326.3034312620394
C 32.83632752545244 40.382654022680924 326.0004434349503
C 31.35309123123035 43.298417667766884 324.0644181180626
C 34.21466352859537 43.15706875173408 321.5687245666593
C 33.24292848441043 39.5789550513737 320.704174682784
C 29.644812401573116 40.607358508574784 320.0318149241309
C 30.988563053704834 43.11327323041587 317.5033771922781
C 33.39485432882382 40.53022858624304 316.0726170841558
C 30.853978667726828 37.69040199298628 316.00343961640584
C 28.1431556803502 39.88395723620596 314.51122708294326
C 30.428320872562242 41.175743049954924 311.756845167038
C 31.53686668540758 37.736863474846224 310.5662250343257
C 28.07803047444693 36.218157903674324 311.0886711523359
C 26.463430550451932 38.83971707354112 308.8413766746736
C 29.194753069039958 38.43619385986055 306.2313606615352
C 28.91136761723769 34.63872236808896 306.2918624673194
C 25.110330014116805 34.765210986559765 306.0988191200806
C 25.455817496229542 36.88039887783727 302.9597103855371
C 28.23221323337341 34.70837036535835 301.50235443193
C 26.104653087359903 31.590608116632197 301.98151429714227
C 23.185651497016313 33.22922438602509 300.1751472731033
C 25.460013666867475 34.63907603391416 297.4719794529669
C 27.29676265914392 31.379370933424994 296.77703474512714
C 23.953828921312017 29.603760521005555 296.331640936431
C 22.75962570777675 32.29241317150875 293.91028957760676
C 26.105142313952133 32.18072706645166 292.07563359608685
C 25.916050264973407 28.402136573442473 291.6806528693007
C 22.24515325539864 28.58882060924391 290.653189359948
C 22.99809335642456 31.230770793370507 288.02098911347446
C 25.908165725116447 29.097754911376487 286.8092492769843
C 23.486011857487355 26.260669387618922 286.02125412998
C 20.895373642328614 28.488454528187706 284.3237450390184
C 22.842088715862282 28.62446994194982 281.0513761310266
C 24.455321999994375 25.184262730197823 281.16048446284077
C 25.216308555210887 22.349224085881342 283.4852552630349
C 28.63715614276215 20.824536891174983 282.9098169854043
C 27.863681090858645 17.10074346835266 283.180553433833
C 28.982414871790812 14.526591999018963 280.6293286850873
C 27.545393949124357 11.018054618935816 280.391072614781
C 29.468003712189873 8.12613724610224 278.8568264737258
C 27.73491410523951 4.801253603549809 278.1717583069582
C 29.909551406305507 2.0388221279840932 276.74135962069045
C 29.380475441696642 -1.532476797612979 275.6410797683736
C 32.51665453905687 -3.6822756188513592 275.69625312625556
C 33.29723334048484 -7.387392485737651 276.1089234385884
C 37.10175077282554 -7.487155512379627 275.8757903679355
C 37.56597790018865 -3.976192384731878 277.28350211397316
C 38.78007048787719 -2.0622298832566006 274.2215512206546
C 35.77286821888751 0.25405949042751785 274.2463057424657
C 35.95613280113874 0.4663132893657941 278.0527433872697
C 39.57760117043669 1.6074665041203944 277.8206221327634
C 38.55205753376735 4.055304498365012 275.0896159232786
C 35.777082889082955 5.504843184874076 277.25125722365294
C 38.020163537009516 5.744885085442113 280.3244085287625
C 40.583252877327844 7.640489646067482 278.23842195289353
C 37.93420395081428 10.081734384701454 276.99552565293396
C 36.66354372604824 10.32549790223395 280.57598926513776
C 39.89476451147748 11.773363230476527 281.9821901992779
C 40.378340680783836 14.326144637385356 279.18487196420296
C 36.89271309749823 15.71239388225358 279.84167988917517
C 37.43044570751132 15.515746208619742 283.6064077301471
C 40.486339174532176 17.763084559303838 283.2639411211345
C 38.62350282328665 20.145024758135843 280.9466019302108
C 35.95020014830814 20.97085701381944 283.5326186574549
C 33.17534420287433 18.418411910183316 282.985308678158
C 31.516061368730014 16.464255587029037 285.78488891347564
C 32.01766773933887 13.125562582015345 284.03957930457693
C 29.72271428858184 10.155038445783239 284.74171897356996
C 30.88211557172148 6.904234543108119 283.1202980733779
C 28.555470798968646 3.891865746646147 283.12762995947344
C 28.505191369550083 0.4416338957541378 281.56122013373994
C 25.555515242074637 -0.10006162921833041 279.21892665834116
C 24.57776588568249 -3.2698897673453957 281.1048891705646
C 23.770146712277217 -1.2327865841273185 284.24146450536415
C 21.544619500937042 1.562947313212105 282.8699945624365
C 17.853054352462852 1.9908494945052648 282.11846863115244
C 17.03684856428039 3.8128787249101532 278.8899339985343
C 14.098852270913643 5.838308612577666 280.2175521203649
C 15.246525065481263 9.395795970307717 280.86524207703275
C 18.88365303881031 8.287030455156007 280.8705026618707
C 20.28829348097302 11.440702929141231 279.2602727971926
C 18.404389290242843 13.844078910707013 281.5390923202839
C 20.596413433079807 16.182674828689056 283.5606430203019
C 23.519527110377055 15.823767269525472 281.1391226073784
C 24.2771284299198 18.260129230765806 278.32663644928965
C 26.947783565933378 16.029480277628096 276.78275174591874
C 26.38170033551853 12.319158476392664 276.13761122123316
C 28.95331423102371 9.986258966301653 274.58275731376875
C 27.778943475635867 6.546274922762203 273.49743699600566
C 30.45013418921586 3.938790139866647 272.78753885990824
C 29.881058860422062 0.47178948828875056 271.38979649973373
C 31.92942281838259 -2.23838492957492 269.69518691736675
C 30.77176253192885 -4.13198214986865 266.6068158137303
C 30.21427023568163 -7.90352037129474 266.6340568683032
C 28.93252735702384 -8.789573901143598 263.1798119142545
C 29.784849276288334 -12.492516891900822 262.9180228966003
C 28.286443673084975 -12.619144281192003 259.4311528020809
C 25.958035267023053 -9.607952514529291 259.79935268659625
C 26.25628241189968 -6.363341375329904 261.78737752540144
C 25.562439915769446 -6.456602556555344 265.51691471751604
C 26.058398227176692 -4.159177998228129 268.48403406905453
C 27.85470378568943 -5.334190253378524 271.5960533046516
C 25.245027650514388 -7.289692765697553 273.49825115242896
C 25.11217896970556 -5.08733996427353 276.5948734440845
C 24.256082534561084 -2.082582458187313 274.40725839388864
C 21.31663559956909 -3.5604787568860368 272.48076506682764
C 18.663076238100288 -2.9472994734847946 275.20227811637545
C 19.65503639036791 0.7248341739184252 275.2367126556656
C 19.76388058344752 0.8929574877206412 271.4473681250751
C 16.292318557769814 -0.6269475905481949 271.13251118012005
C 14.800984488296145 1.9605235235883187 273.51697337964066
C 17.01365678319177 4.892507858719939 272.55489818820183
C 14.028759196647416 7.170376248446354 271.8752912722053
C 13.259445251783527 7.1113683594977655 275.6249569320449
C 16.630116783745812 8.567854592622048 276.648408582883
C 15.890002187779334 12.228449195714784 275.91203103960373
C 18.29340300222359 12.559456614813298 272.9665063474192
C 16.31449266698209 15.142407819324593 270.9777578047185
C 18.04582087238334 18.505926512517227 271.1299572248759
C 20.873577395462743 17.133997890057994 273.2589642228398
C 24.568168340990212 17.155349717161823 272.3481965055525
C 25.88326829611207 13.645545220807847 271.638776961925
C 28.77763183859056 11.884723052831248 269.93966487397506
C 29.684434112718517 8.258707679405795 269.34492685461515
C 32.808693114612964 6.129234357046121 269.5568961190333
C 33.544714821320774 2.4465835808423617 269.163233672213
C 36.197602346765876 -0.21869275734760915 268.6675308565876
C 36.24625793927046 -2.4033022212123765 265.5751519071495
C 38.55301522893059 -3.9801818528273913 263.0159355440916
C 38.83605859412401 -3.1133081766383617 259.33622444588235
C 39.07661063688052 -6.728111204779953 258.12574761759697
C 35.310407464826824 -6.998493653517295 258.64927508356845
C 32.943289825124744 -5.773350755218078 255.97451737874212
C 31.372318498737123 -3.031749492928851 258.11214123291387
C 34.16883598957478 -1.3951724790887352 260.09083831185876
C 32.62241213348311 -0.0817314526228643 263.31741367026103
C 29.13360158559435 -0.5925264912778816 261.9186168651046
C 27.871932542244792 -0.15837391268037532 265.48109209806177
C 28.751529972165393 3.5436584032181475 265.6696567102995
C 27.141011299886912 4.014032369830419 262.2498773556284
C 23.905008634423677 2.4699660472786467 263.51479751957703
C 23.95400219030816 4.506372909541466 266.73185329874343
C 24.675187302190402 7.795908886823988 264.9502562722176
C 21.932079324729482 7.216668711911724 262.36637137970723
C 19.39169211537954 6.58407329603242 265.121256795722
C 20.646903761796654 9.61652032953741 267.0444712301563
C 20.139090108958165 11.698508095429814 263.8978593903023
C 16.642892738892265 10.275976030594514 263.4543933688379
C 15.890529433450679 11.260315453048802 267.0664991399335
C 16.877959306116914 14.896715126721945 266.5723374153091
C 19.996387080286475 14.7600057571864 268.7190230111616
C 22.613185828401214 17.45446306985371 268.10424131878784
C 25.618133846794883 15.3968534218254 267.0035256877658
C 28.62283256537997 17.54420407646863 267.87702278861326
C 31.102476129124053 15.805712249546563 265.5605700577694
C 31.802887715918942 12.630533734292877 263.62552787344396
C 32.20177592338464 9.36879453389766 265.4637157563133
C 35.47257885989788 7.93804586635737 266.7264286675625
C 36.22410720180321 4.6280233865388745 264.9814949926483
C 39.183294003080896 2.754643971213912 266.47253486245427
C 40.858311082242764 0.07371406677783422 264.3597988175156
C 42.647547741364306 -2.721885645295742 266.1694992582374
C 44.085467279900065 -2.0840410364977853 269.6107961882408
C 42.935760541876256 1.243872566734556 271.106398628909
C 46.11273019726608 1.5721296512469964 273.17106492176947
C 48.07449145843021 1.8048538529798845 269.895738577781
C 45.794055962739634 4.658409952562705 268.71847629643855
C 45.68573688297873 6.777087508481338 271.88661312931123
C 46.59731685600587 10.040857329642819 270.1276396872796
C 43.34242294620316 9.86661629588927 268.15953478875804
C 41.188444084798704 9.058316570601416 271.1992373166688
C 42.61841970322573 12.042424674139511 273.07151701296783
C 42.38992568922537 14.193358807325518 269.94714485129884
C 38.74337460977472 13.238862725086712 269.45849248367415
C 37.94106470488876 13.926998384040708 273.11625006097955
C 39.53218001739567 17.35421191823004 272.6824676840986
C 37.21940910261503 18.167344037964046 269.77697798159744
C 34.140235462309825 16.886723026879665 271.62449073084764
C 35.20618703838154 18.98594541551173 274.6259036992938
C 34.08209238001171 22.173128344251307 272.8858961083049
C 30.433618736498648 21.091131105265088 272.83690579350184
C 29.834538618856644 23.390256722755716 275.8320488545142
C 31.677620164256226 26.749074223443877 275.70914292276785
C 34.73154094571521 27.199246640352573 277.92236647143477
C 33.18864678474244 30.162816804548523 279.7529352488822
C 30.161625613273188 28.13367089717594 280.8462646139142
C 32.272564960745285 25.26038436482888 282.16233365358977
C 34.75014867166963 27.65021822850157 283.7887570743643
C 31.96458799248648 29.58247872626937 285.5090309276526
C 30.6042610258194 26.290825043893562 286.8695079086368
C 33.881596995851275 25.004989364463096 288.2985905197234
C 34.55882819473322 28.432125175440113 289.7975681146243
C 31.112463103317452 28.316803108541787 291.3949450427642
C 31.60983655434014 24.696024007931623 292.4799347107606
C 35.05200999192908 25.45523436060393 293.919516675528
C 33.79966819683773 28.397723641664456 295.9821564191258
C 30.968029153113008 26.45004429984318 297.610182824814
C 33.458265749568966 23.768275733438784 298.6398360268372
C 35.77687808506682 26.33696379013453 300.23907274912347
C 32.74801190831528 27.748114648792825 302.05676408455406
C 31.37635309192607 24.426351832363906 303.3310326396233
C 34.81815993301578 23.405995841837427 304.59234431262746
C 35.142689189267045 26.76486025296244 306.3455297002139
C 31.766046632670154 26.337929007450274 308.05842167430296
C 32.597854036977324 22.77876275556475 309.12454222998025
C 35.91792774296645 23.68193007045153 310.74250515629393
C 35.459965577677025 27.19560586050319 312.1186037349272
C 31.705974858571885 26.952369997920677 312.6704644629297
C 31.840244328575913 24.94186384249072 315.90544457495554
C 34.36316970801581 27.335867879897116 317.46016922043276
C 32.08715454538249 30.24986544245552 316.5546424591562
C 29.19237023438676 28.46667250545568 318.2600458143174
C 31.373709045117174 28.16462673907118 321.36517529600934
C 32.03965265349452 31.90912010057814 321.2799539529474
C 28.296166230313176 32.500344455243436 320.9354267747308
C 27.748739086262713 30.415291733691692 324.07153438739016
C 30.315256673843116 32.622279232855014 325.82086968359533
C 28.86841258573174 36.064973662543665 325.0814455641522
C 25.132646999773787 35.61590898536419 325.6548085844519
C 25.143504662918367 33.19662553752822 328.5815136281914
C 27.76170487624666 31.35249087254527 330.60378597843936
C 29.82814681947713 28.361181943464075 329.50232485225047
C 29.385672646586094 24.72167845044973 330.47702179370924
C 31.985916669524705 22.278140249844125 331.7302167565351
C 31.258241610476958 20.28815616253096 328.56619247994786
C 31.66586999432374 23.1887741963783 326.13199689447504
C 35.067781694401546 24.0253589616411 327.64590473534196
C 36.14358224173593 20.439078100630418 326.8437112586886
C 34.965906914635134 20.15864874955305 323.22995094049975
C 36.62885970729429 23.54262840601734 322.6725899696622
C 40.03564602954313 21.840878661025606 322.8093200609581
C 39.00423665739209 19.72365105177501 319.809285346646
C 36.94541190418246 22.36669071107946 318.00323673815564
C 39.97238799373158 24.672806549374883 317.99684807943026
C 41.94229482307666 21.89204568791638 316.29293973209724
C 39.255214386962955 21.834357027501806 313.6040831667928
C 40.20897494649695 25.457964650423552 312.9430926519954
C 43.74729370094076 24.34115902769022 312.064957541715
C 42.861811620880715 21.583313808307903 309.60562549280564
C 40.82030674569623 24.10506726285856 307.6276862889433
C 44.16241985147542 25.71494199057061 306.7830918580937
C 45.54006377099863 22.27617322947945 305.8368937534814
C 42.8269710026274 21.08237324391153 303.45421623170523
C 42.50732782210707 24.404636740843742 301.61468807831193
C 45.89875889788705 23.9052529297146 299.8993007367581
C 44.63240768393199 20.38909526566921 299.1583045347362
C 41.44376674533634 21.825894399033086 297.6413814258474
C 43.41051647421191 24.241831751854733 295.45981131110733
C 45.486234030490074 21.359452071013084 294.0995766183043
C 42.5266261253459 19.168251899452358 293.14811510733585
C 40.43792308871486 21.81579490466596 291.35396497618314
C 42.8526670967465 24.427191239685232 289.9697726932102
C 44.20486136339576 22.63617783892643 286.90420998472086
C 46.46382403427419 25.60771567786586 286.1209479325589
C 48.11961815027165 25.485138244412543 289.5499799543701
C 49.124926227387554 21.857916831092933 288.9890424619576
C 50.936672915667856 22.81750596151478 285.7854239150394
C 52.65462967728906 25.79805628960029 287.4204200059302
C 53.767435201676136 23.35115621896596 290.12108340508587
C 55.18336397236164 20.901128535046617 287.5708595797085
C 56.886597544949396 23.876489953081713 285.88870114735056
C 59.2395740525848 23.871689105938014 288.88622218957545
C 59.3795504961914 20.057566085787247 288.6291758405225
439
Mode 7 - Frame 5
C 49.16095324087636 35.98907647345315 337.3991527211798
C 50.58790485337319 33.80308571791775 338.7346885520703
C 50.43114713953145 30.567327116962268 336.77982745334407
C 50.20313780614473 32.94708627341657 333.81836817749854
C 47.462524688884066 33.87238416032457 331.36535725455104
C 48.98437940419989 32.14259755993344 328.34376098187596
C 47.87211960596071 31.328943234305935 324.81354154297134
C 46.96027146006816 27.653779220527614 324.328716360553
C 46.66490059078078 27.141194951898505 328.10907939064026
C 43.315475473058044 25.35082757101693 328.07685067910415
C 41.534559225383006 23.29324705734868 330.7472220709007
C 43.11360626098691 20.05039134886492 329.42527173178513
C 40.94068872862123 17.387607516513505 331.0264055660518
C 43.21594732096231 14.33944629609845 330.71715847905676
C 41.84079981012544 10.829351689630476 330.2466961907627
C 45.340064336619676 9.400164465769633 329.6776178363562
C 48.90044768661887 10.571218019525254 330.33638652357865
C 51.709636709383396 10.990421961632807 329.33106198055765
C 51.278797263933605 9.22131789035112 325.9888598990453
C 48.534111722306555 11.722021429160144 325.2063633146077
C 50.767964267266045 14.595412184184992 326.3081079451435
C 53.701394540540385 13.193120822700877 324.3274189728567
C 51.857280498095015 11.801843292718088 321.2993417792672
C 49.362347598781916 14.661942203344642 320.93564145221495
C 52.235047437899944 17.1334153216383 321.24413525130547
C 54.30531984474149 15.639743056167898 318.4164255230277
C 51.14111874699724 14.993366528088536 316.4004934737253
C 49.80649510895679 18.5410209471985 316.7448438839058
C 53.21756199089772 20.11173860893255 316.1274457769311
C 53.757713007923144 18.003002070029595 312.99857098395006
C 50.28569070482197 18.892016984951496 311.71851371818553
C 51.01246460683834 22.58103988508451 312.2510712553365
C 54.40346278614977 22.62453249416355 310.53190812262045
C 52.9416882860499 20.664168746085842 307.6116216058047
C 50.343850719734256 23.412778122079832 307.1518680276995
C 52.90242870267721 26.228761320203915 307.2467318396063
C 54.963928933020256 24.521735089016314 304.54522080535014
C 52.05740447670575 23.511536400363347 302.31318728953727
C 50.54565699930766 27.00483544949049 302.47618951239735
C 54.03708418579936 28.395329121818108 301.91804510921617
C 54.12193800739756 26.125254933393084 298.8607101426018
C 50.918466532700116 27.694527758219458 297.51200202692434
C 52.35016829855297 31.17056982550314 298.10825574316704
C 55.44173592564383 30.12838943160125 296.1362521998775
C 53.93619160683688 28.85043352157936 292.87559420911884
C 51.74234166280634 31.957100032160035 292.6078449224307
C 54.463436302940806 34.5677904717244 293.1206882371208
C 56.83434368014648 32.38218825674272 291.0840420272384
C 54.778599696049135 32.260219873809774 287.87480711180126
C 53.544015868141955 35.33387487993744 286.0130492079211
C 50.66555799150573 33.51524024618046 284.3006017199791
C 48.956992931144484 33.40756185878348 287.72906820107556
C 49.93409556610782 36.62677882317633 289.53706138610545
C 48.2288523419371 38.51142145432685 286.68737617806096
C 44.96412833218077 36.579038957719845 287.1493907956642
C 42.40568282888944 38.140680123412714 289.5386085170462
C 41.293425722221734 34.64207493039843 290.58132228635463
C 44.718872646676154 33.87951761375881 292.08547102260405
C 44.681450706339085 37.095971602571204 294.0864548893394
C 41.8612701612089 35.21751232530574 295.849984714251
C 43.73043306476156 31.941463998108922 296.4295838669997
C 46.9418572100163 33.702509247983 297.4301506335968
C 44.950741084802566 35.82038947853089 299.87876782667894
C 43.41814389342956 32.68979916541622 301.4165425485464
C 46.74048493598897 30.845836217765473 301.52172723536364
C 48.53940556030737 33.722551041814285 303.2519635514654
C 45.602734651532394 33.89907365895572 305.6672817750195
C 45.87621721597441 30.153647688095134 306.2977727703189
C 49.63161865004558 30.625473835058703 306.71240625550627
C 49.325351472769555 33.56078795250502 309.131334325838
C 47.29094987867703 31.32561106498246 311.4314663710187
C 49.28602787145543 28.123433143139035 310.99328981452595
C 52.46749797825993 30.081583994350247 311.758414247299
C 50.95792368056665 31.491265675473926 314.95757334930954
C 49.846630272957164 27.978531653332023 315.8846091632196
C 53.30298310616669 26.415483591854148 315.6052550910022
C 54.93185314380389 29.452850255554996 317.21870900898443
C 52.615400900323856 29.53196270404735 320.23885493308813
C 52.706865335839574 25.731755318169117 320.50435555280774
C 56.50968358981794 25.52311313798817 320.6373186855634
C 56.6889960418036 28.6971661459382 322.7507422009149
C 54.493973835111724 27.236531701296368 325.5237877544665
C 54.413009680362435 23.42728320320872 325.2908844144852
C 58.21460466146333 23.23179447124251 324.8799695137437
C 59.69499971970042 26.322869708112282 326.5502960457051
C 56.7829072751344 27.012426840307064 328.94195493083447
C 57.36986304598815 30.750118336568384 328.55227775651707
C 54.84474485476349 33.26527063995605 329.8605579024207
C 52.66528346133715 35.63845775618645 327.8561616452284
C 52.14465777227886 39.2462302552808 328.89585573888326
C 48.97561374778762 41.11252615068283 327.9048669699503
C 50.243978099195424 42.396233731094924 324.5520683677628
C 52.11557124162531 39.238315932576306 323.526662297454
C 48.937353208678054 37.25848491779364 324.22213486236757
C 46.573707210184224 39.498763281265965 322.245094862496
C 49.01757346137198 39.65285842465142 319.32984097820145
C 48.91683179559659 35.8579051113647 319.0414996193879
C 45.1292544316536 35.78063841186543 319.3904129056697
C 44.727550269472886 38.75436928694189 317.0604943516547
C 46.82321152503475 37.003287551297404 314.4329173111558
C 44.483223820105664 34.011905179704094 314.52102883239127
C 41.52308645652353 36.3976840156446 314.56027027726645
C 42.993080607960614 38.223797374127365 311.5547625838398
C 43.54510771169665 34.93504061174733 309.7109180334411
C 39.84379740878218 34.071210909466316 309.86874804519647
C 38.75080625656461 37.65284010416586 309.2056421961341
C 40.73651365096045 37.85629804187504 305.96821879182085
C 39.4321995955917 34.39788800281956 305.0443448622787
C 35.83164902572086 35.60097468415622 305.3355079308124
C 36.83654410965795 38.90052596430144 303.73963427588905
C 38.283844835298666 36.98345896408975 300.78975860041186
C 35.10667503754911 34.93472576218402 300.3149753290458
C 33.2413120018377 38.25031158623807 300.35882946759955
C 35.344240569488655 39.733987421106335 297.55234837590024
C 34.91529638996295 36.52065319078625 295.5695857955776
C 31.13373644195697 36.86674846635218 295.81635878608756
C 31.44361346060997 40.382738292468936 294.3768030455394
C 33.547215410126434 39.11908569303389 291.47081270663665
C 30.91051359701769 36.49362214776827 290.6977727475981
C 28.144149453450733 39.0883880447129 290.9778732345508
C 29.939855979705516 41.16899326631361 288.33787112017995
C 30.400195961652347 38.08800156314927 286.142167883384
C 26.669191418767095 37.348825815888375 286.393741862869
C 25.333100418913606 40.88328965353444 285.90684155619357
C 28.003074313681612 42.15096500572281 283.45872931597575
C 29.14063914039955 39.05643128822359 281.53711464626673
C 30.15031330890739 41.07471662200385 278.47255030399464
C 32.42125515990621 43.63208733215709 280.1658955990404
C 33.46822271864507 41.496789671395106 283.15811433669563
C 37.05160833337056 41.07854214451625 281.9332409520395
C 37.61256418550484 44.8448966811187 281.74119527743346
C 35.88455111900496 45.61593527344744 285.0667516341111
C 37.666965418969724 43.15246989412919 287.3753409750913
C 41.33994706604346 43.737273429746644 286.5603772404634
C 44.655980486021626 43.0564232298168 288.26502310379726
C 44.97636160806873 46.6084141722031 289.6804311695112
C 41.333195713361015 46.53522493497991 290.7908699151474
C 41.737213896580194 43.18800842534158 292.5532384825511
C 44.91201789289363 44.236402241756885 294.38557093213115
C 43.23509888190346 47.35967743560807 295.7721234980871
C 40.18741709292053 45.40789359744065 296.9460760932906
C 42.29007999796641 42.79077976397807 298.73515781883924
C 44.73714232093036 45.2910303988063 300.2380915202346
C 41.81082565398972 47.269748780795425 301.6483300067895
C 40.135206588887016 44.115384472294984 302.9142503158134
C 43.232439731048295 42.97686137978612 304.8074907247901
C 43.71093582847975 46.35198723311733 306.49018046309203
C 40.091090540752205 46.14564449790493 307.63083407308125
C 40.74451502564898 42.56656541883418 308.7493500981154
C 43.97426455195983 43.49174636779963 310.5512272810056
C 42.35074740249587 46.48557640458643 312.2398810883841
C 39.864877819110625 44.26157759086172 314.0635145247665
C 42.616418759883445 42.071797671093776 315.50542141543696
C 44.579120530487955 45.10689170957919 316.66923874434343
C 41.481540779308176 46.79121135793897 318.19118313309264
C 41.44579824619987 44.31539315425691 321.1065611536202
C 45.22635951212859 44.490522717405845 321.3234347459102
C 44.99239908172354 48.26663874969653 321.27931133316287
C 41.94717627462352 49.28713297835139 323.33871390845735
C 39.10548068971777 46.836244064180725 324.0186401938271
C 40.1484585008215 44.836995172414944 327.09134409735356
C 39.315112245929555 43.448338262807475 330.48762757308316
C 42.314675457821465 45.21726692806694 332.0124217510646
C 42.011489311926574 48.55743793987029 330.23023652570504
C 38.202305396088185 48.79478368143083 330.38137702036886
C 37.5443335726151 46.85277075972698 333.61870167970653
C 34.80343740174022 45.166885306785666 331.5897332279815
C 33.308957606980655 41.69278480542912 331.86060852797885
C 35.8995330020002 39.135908787572 330.8273702358993
C 35.392086592511546 36.22435637448404 328.44314756886115
C 35.167422903717274 32.78289861584952 330.0383452706293
C 37.25198343579756 31.353200729993667 327.16527974655173
C 39.974167785873924 33.85967725366741 326.3113031717773
C 41.983120283117444 35.88471212711192 328.84736886145214
C 42.11789469779833 39.68016368896491 328.5088876505674
C 39.230070727957234 39.6442943096654 325.9861337353542
C 36.25372193492597 41.983043382284386 326.30416398064733
C 32.8320825271549 40.373337095426805 325.99952464509494
C 31.349303217564362 43.29021912362079 324.06481795903
C 34.21146620190055 43.1503006827315 321.5696711359383
C 33.23994032085145 39.57266423815858 320.70288074993005
C 29.641970395597973 40.601465112122426 320.0302961522901
C 30.986341226041066 43.108853902190496 317.5036049139519
C 33.39301136837682 40.526628636648695 316.0718923596941
C 30.852156266982032 37.68683071656594 316.00053596961004
C 28.14169325327537 39.88130453107357 314.5089497017991
C 30.427547168883212 41.17470844995016 311.75582745231026
C 31.53634858517202 37.73651019586551 310.56345125805433
C 28.077374104949566 36.21752260487088 311.0843176213468
C 26.46333639075737 38.840497051689084 308.8381319160724
C 29.195208294864255 38.43837549266506 306.22844395938347
C 28.911759107786242 34.64082603872571 306.2868791621579
C 25.110715286909297 34.76756080342844 306.0931672388489
C 25.45694478373875 36.88443328420855 302.9551979897133
C 28.23357130898949 34.713061465642575 301.4972871220357
C 26.105918541640655 31.59500782533948 301.974654547893
C 23.18724739258637 33.234718108955924 300.16855753990416
C 25.462165504377136 34.645702691403784 297.46635408311914
C 27.299038344120344 31.386211705304284 296.7704264051878
C 23.956115562878942 29.610831064148336 296.3239753666176
C 22.76237480393719 32.30058374456909 293.9033926705041
C 26.10814218417101 32.18928024696479 292.06912427742793
C 25.91920026682578 28.41092281893597 291.6731546247407
C 22.248154934808987 28.59805066576881 290.6456144731302
C 23.001581187796088 31.24032331699074 288.0137118197322
C 25.911500170677172 29.10730480887521 286.80184964970397
C 23.48915550858018 26.270205143582338 286.01435136153685
C 20.89857711531482 28.497789404558944 284.3165927391734
C 22.844914371394946 28.631988493611388 281.0441628314601
C 24.4576901731707 25.191250962571246 281.1546118931943
C 25.21950126590367 22.357528745358824 283.48066761173686
C 28.640489003860203 20.832727921545416 282.9056529203513
C 27.867762161753557 17.10913400882702 283.18014888891094
C 28.98579051428433 14.533138620308637 280.63054049876195
C 27.549096836266457 11.02418167902919 280.39604518562965
C 29.47147672069643 8.131285856005396 278.86341186590715
C 27.73853764917414 4.805594692764514 278.1821355265636
C 29.912949625071573 2.042265111155812 276.7531590858251
C 29.38386109955298 -1.530075355192868 275.65630535402016
C 32.52040051529885 -3.6793448547108967 275.71183808125284
C 33.30173643128663 -7.3839849894015215 276.12743021733246
C 37.106174070037966 -7.483378127738462 275.8924562697558
C 37.570604105521895 -3.971098279988599 277.2968133098273
C 38.782893129373726 -2.059622260894225 274.232555606611
C 35.775326710520176 0.2562189049603417 274.2567734816972
C 35.96045391541771 0.47182171265320516 278.0629527877448
C 39.58166902631976 1.6133309660495259 277.8280004973719
C 38.554381976890255 4.0586618903776985 275.0953397398555
C 35.78023828540127 5.509612466871387 277.2570870806114
C 38.02482043778613 5.752637634091565 280.3289405873188
C 40.586601733692184 7.646853990950819 278.2399798928544
C 37.93655260430747 10.086651028486697 276.9962739792772
C 36.667602083379435 10.333186429316006 280.5771449550015
C 39.89935543253325 11.782683010576939 281.9805681278532
C 40.38120799925246 14.33327869498894 279.1808823421394
C 36.89564199586309 15.719569153026516 279.838154563481
C 37.434983913652864 15.525790723483126 283.6025066981225
C 40.490694413090914 17.77335037330085 283.25698659601267
C 38.62656230449116 20.15346181047444 280.93926061489196
C 35.95403634220087 20.980423794174378 283.5256108122774
C 33.17920421649613 18.427243683192827 282.9812259155482
C 31.521362784276207 16.47488038508036 285.7830516716744
C 32.02290406742759 13.135246029572926 284.0405018544615
C 29.728619722198957 10.165131282683488 284.7464677169638
C 30.887922006231666 6.913202340222313 283.12729214982136
C 28.561666675316083 3.9006072103525504 283.1384820129331
C 28.51117568952053 0.4490142053981449 281.5751461120745
C 25.5603956501602 -0.09511125590064094 279.23478833543004
C 24.584010555246007 -3.2634228071492672 281.12405169153
C 23.777611817224592 -1.2236569283184604 284.2592339900109
C 21.551005317599394 1.5705447992277433 282.88636352399607
C 17.85901601636635 1.9972733410935481 282.13623879800707
C 17.04095732726197 3.8163310665040346 278.90645829785177
C 14.103292351050923 5.842493445524185 280.2336825710584
C 15.250745689376004 9.400722797404008 280.8776835145855
C 18.88806017549534 8.29249211120496 280.8821604270409
C 20.291483699108493 11.44495296317064 279.26842015906107
C 18.408256759156973 13.850044635368446 281.54605237501545
C 20.60094630257542 16.190557963064965 283.5645524440213
C 23.522921311759653 15.830012167910368 281.1417885148174
C 24.278968539488368 18.264284402548007 278.32690703966205
C 26.949235947251914 16.03270138298799 276.78370280934615
C 26.383304306638863 12.321664962721472 276.1420114432928
C 28.954523654688188 9.98778995608274 274.58800845318007
C 27.780091594107994 6.546651086081975 273.50627291700926
C 30.451313842584277 3.9389207911750175 272.7973837370929
C 29.882060705886122 0.4705972148333055 271.4029910207719
C 31.92998878868592 -2.2407635082913053 269.70976881181537
C 30.77106185756594 -4.137270466407539 266.62365127519496
C 30.214149567598646 -7.90889768389177 266.65456993547053
C 28.930795683221916 -8.798267107575107 263.2017726469006
C 29.783501536777848 -12.501366023860724 262.9429948539303
C 28.283375344941657 -12.631404195866349 259.45697300019856
C 25.954734055940307 -9.620180720177876 259.82355241476387
C 26.253518123132217 -6.373649654403333 261.8084396702863
C 25.561520544010047 -6.463646979940135 265.5383963925162
C 26.05862942701579 -4.163506585942007 268.50322054929353
C 27.856639031558867 -5.335544529203546 271.6154083176655
C 25.248173913017837 -7.289807315979851 273.52061521829796
C 25.1165077180553 -5.084750544041557 276.6153561816669
C 24.258907168002445 -2.082017360376046 274.4254898539483
C 21.31872492284643 -3.562046089507965 272.50172594038406
C 18.666395886792465 -2.946852935678777 275.2239852322784
C 19.657853393768733 0.7254681627349701 275.2546885246208
C 19.764852950434467 0.8903048241767362 271.465121673036
C 16.29336334474296 -0.6304113192218728 271.15326472084104
C 14.802800796810937 1.958956568047678 273.5361498247559
C 17.01459214433018 4.890442256575968 272.5704244534366
C 14.029050083556642 7.167296771495562 271.8902211262045
C 13.261503100649465 7.111429268524591 275.64032755857113
C 16.63245102397874 8.569318718354703 276.6608775525324
C 15.89149071868533 12.229184879694126 275.92162659549246
C 18.293469639498852 12.558043947892328 272.97469232731464
C 16.31325131349195 15.139002858429693 270.9846625465895
C 18.044137731970714 18.502938022901517 271.13309184235015
C 20.8731768126472 17.13333613266258 273.2619346453142
C 24.567369415891157 17.154580782998714 272.3493864630598
C 25.882651250933126 13.644312557204634 271.6423778289207
C 28.776413497422038 11.88236232923551 269.94341255911775
C 29.683348429284298 8.255848357397435 269.3513634928622
C 32.80798096194915 6.126958178690368 269.5636583793425
C 33.5443369621633 2.4440344431284613 269.17286273383485
C 36.1973712418294 -0.22128758816926977 268.67820117104617
C 36.24481242092569 -2.408643462229064 265.58774378704817
C 38.55053746514663 -3.987487416211512 263.0288223521542
C 38.831603775331025 -3.1239416704935024 259.34816691170283
C 39.07208174740406 -6.73986959381517 258.1409182814058
C 35.30617568467495 -7.0103152812650835 258.6665171905342
C 32.937550423845764 -5.787959740604053 255.99179954973042
C 31.36724524721298 -3.0446055370357845 258.12770768610903
C 34.16450971477388 -1.4057835350652803 260.10354369023673
C 32.619503942327505 -0.0896239498867254 263.3297181289912
C 29.130063312236487 -0.6022039711552236 261.93310450019857
C 27.870102514553388 -0.16504982505787938 265.4958236660645
C 28.749302674398685 3.537318538599238 265.68067853919314
C 27.137044717275188 4.004447298826593 262.26126637295283
C 23.90186837171195 2.461031418211762 263.52914967414443
C 23.95218367907224 4.500316542191593 266.74439580310667
C 24.67207658257411 7.788452975306314 264.9595583665423
C 21.92779328591423 7.206527452913168 262.3775113807083
C 19.388830219826318 6.575983161415212 265.1341967234253
C 20.644572918812894 9.610322986269573 267.05413957248965
C 20.134971205466076 11.689497743050202 263.9059383944617
C 16.638741199839775 10.266050939522133 263.4653716536605
C 15.887971342350337 11.253422824505584 267.0769988578479
C 16.874645534736693 14.889557880815081 266.5791726448966
C 19.99413615504351 14.755211497437339 268.7244834363302
C 22.610240217218745 17.44957907559935 268.10610009477097
C 25.61501428821519 15.391537916716217 267.0057621890206
C 28.619828541405194 17.540269369874924 267.8761997961189
C 31.098586407015848 15.800042697044654 265.5600029095226
C 31.79840464205112 12.623181142633861 263.6272686797212
C 32.19859718140739 9.362973235160302 265.4679679113429
C 35.470194293693766 7.933754295129089 266.7303026476003
C 36.22131394167344 4.622239929072742 264.9878602216002
C 39.18152374370793 2.7506166500244325 266.4790720360914
C 40.855882238433544 0.06804481475898316 264.36786780583583
C 42.64648084666847 -2.7256698354461126 266.17917223507357
C 44.08604060200992 -2.084543878354028 269.6191954460608
C 42.93654770760594 1.244512903884948 271.1124172196555
C 46.11450445821792 1.575127427660638 273.17520945992226
C 48.07457272212747 1.805325743643116 269.89867168936485
C 45.7930731035297 4.657485626323311 268.7200432222202
C 45.68602408027536 6.778920851602977 271.8863838072916
C 46.596211783924694 10.041329795179665 270.1241077141165
C 43.34034330359384 9.864899328318007 268.1578043438091
C 41.18802145878117 9.058864972608033 271.199276557485
C 42.618489102047235 12.044809824704227 273.0682954596022
C 42.38809452837262 14.19308743262433 269.94220823892925
C 38.7414523267621 13.237682561491658 269.4562589871056
C 37.94091005185181 13.928816990246432 273.1138111271746
C 39.5313830230151 17.35590048064037 272.67642698792343
C 37.21699646668295 18.166408812605496 269.77151772058363
C 34.138951579479794 16.88700793304082 271.6215955359335
C 35.206217965575945 18.988912728154492 274.620761859799
C 34.08095019034721 22.174803087526406 272.87926484447195
C 30.432563580999354 21.092310248695682 272.8325910609288
C 29.835123737014783 23.393936919225744 275.82643496036
C 31.678218766119713 26.752889595392336 275.7012296532075
C 34.732291800752364 27.20540545159583 277.91333270122624
C 33.19024190112799 30.170392710678914 279.74349947085085
C 30.163878637423256 28.141388029339787 280.8383714662438
C 32.2753040122548 25.26871552677141 282.1549479781607
C 34.75298424102263 27.65967938434486 283.7802839475653
C 31.96782690872742 29.591982955972906 285.5009337873336
C 30.607776581682163 26.300717242209227 286.8619856945226
C 33.88566416145776 25.015570142046624 288.2907512612722
C 34.56227218105482 28.442067001145684 289.79005585569826
C 31.115846720996537 28.32603027128835 291.3874951097082
C 31.613281922940534 24.70528769686237 292.47182166077374
C 35.05531868667588 25.463871423284665 293.91149985465387
C 33.802258966526814 28.40511879098571 295.97523749398493
C 30.970348903434324 26.456665710036642 297.6019454488859
C 33.460459269489746 23.774274003157753 298.6305491943576
C 35.77867679958121 26.34224907085231 300.2314785804577
C 32.74933669440457 27.752432761542767 302.0492842296729
C 31.377403589195442 24.429882403282036 303.3214476132303
C 34.81901313892029 23.408806140452445 304.582810822029
C 35.14313385243495 26.76682137102843 306.33784573725535
C 31.7660543434814 26.33890938144912 308.0497277362621
C 32.59766454955291 22.779054230948528 309.11404935266916
C 35.91741973872818 23.68142245106787 310.7331636136659
C 35.459133125232654 27.194383223802642 312.11109736589407
C 31.704978588615226 26.950777656584187 312.66194295220737
C 31.83846585541784 24.938368933868755 315.8957623108183
C 34.36104819193333 27.331546878228878 317.4524256513753
C 32.08519587425432 30.246040094135132 316.5479692538967
C 29.189951171510426 28.461823141823782 318.2516204312841
C 31.370519244676093 28.157950934462185 321.35710202730536
C 32.03645352857863 31.902525874344192 321.2741590144891
C 28.293052026417143 32.49395267865882 320.9290486098486
C 27.74489284467696 30.40707236607828 324.0638511994661
C 30.310999960081205 32.61306568543364 325.81506081102043
C 28.86434700446039 36.05620564480506 325.0772200838049
C 25.128454827235124 35.606799568860325 325.64948566538766
C 25.138627546165754 33.185815731041465 328.57481912045773
C 27.75636480880993 31.340501334020995 330.59664044801474
C 29.823045180422017 28.349802731370833 329.4939456087332
C 29.380327249906404 24.709719928331122 330.46644286115327
C 31.980280918301187 22.265431326598076 331.7188433008573
C 31.25332099744338 20.277268743889575 328.5534921930606
C 31.66154934228044 23.179311787972775 326.1210831405217
C 35.0631157375222 24.01500113264814 327.6362985597039
C 36.1390486570619 20.42916988705568 326.8322542178661
C 34.96225377595591 20.150819119528045 323.2180374751908
C 36.62536411490879 23.535126116401422 322.6630970989771
C 40.032115105086774 21.833252399479846 322.79961720816647
C 39.00146480301944 19.71780602796334 319.79808858461695
C 36.94316508362352 22.3620097099142 317.99318940350526
C 39.97013721952871 24.668144702318273 317.98888605689666
C 41.940524699291736 21.888415495694513 316.28383539963113
C 39.254092371407474 21.832266485094944 313.59434114304685
C 40.20797869107889 25.456305284015833 312.93566712643985
C 43.74651550437629 24.340027858361193 312.0576750275151
C 42.86161511986447 21.5835310493074 309.596634552332
C 40.820522818877855 24.106401201939384 307.61969751400835
C 44.162819979066334 25.716751271996046 306.7766583140329
C 45.54073572418097 22.27851680313455 305.8289392832493
C 42.82812367274616 21.085907355274625 303.4451576190377
C 42.50887019734211 24.40920653475332 301.60736100776495
C 45.90070325667564 23.91075137240524 299.89240567484495
C 44.63462467300173 20.39489834253044 299.1494258752907
C 41.44620845810138 21.832491022808604 297.63268083263875
C 43.413412860497964 24.24957548168202 295.4526699694933
C 45.489579770489684 21.367959780445254 294.0914043569678
C 42.530367403320305 19.177057214347005 293.1388744214106
C 40.44187882234227 21.825847471524213 291.3458569306483
C 42.85641514942918 24.437474693510325 289.9624596139166
C 44.2089722427383 22.647616541803554 286.89630780399716
C 46.46792874116704 25.61957401781215 286.1146559422326
C 48.12335810955056 25.495743639612527 289.5440239631744
C 49.12888248000117 21.868816319385356 288.98160863737246
C 50.941083339033575 22.829991032928156 285.77871457304514
C 52.65870224684083 25.80980559829369 287.4155288909645
C 53.771144910015465 23.3615992341686 290.1151445196862
C 55.18755795916624 20.912889789678307 287.5638915715383
C 56.89099550560643 23.889137729594616 285.8835258154609
C 59.24347207234535 23.88288164364748 288.8814637173825
C 59.383609972980175 20.068903633980998 288.622425478879
439
Mode 7 - Frame 6
C 49.15603937624001 35.97798902376755 337.3993640871236
C 50.58269168137284 33.7914100630759 338.7342652305229
C 50.426252312925946 30.556460647770553 336.77804317328423
C 50.19883117596463 32.937472568015934 333.8175206579372
C 47.45864878685368 33.86378155780436 331.3644104770436
C 48.98098016468128 32.13519413581116 328.3423629171693
C 47.869283970857886 31.3229483469844 324.81163100519535
C 46.95754892030385 27.64796460037873 324.3252520197814
C 46.661552524212304 27.133850182987924 328.1053561377347
C 43.31218385157695 25.34344673064131 328.07202492986323
C 41.530883085277836 23.28472917877955 330.74125456128166
C 43.11013111003748 20.042378564983302 329.4182290579581
C 40.93692711838116 17.378928658854598 331.0179032507344
C 43.212014729790354 14.330751608937092 330.7074536777295
C 41.83675455006104 10.82094226990265 330.2349822900135
C 45.33604504921381 9.391834848850168 329.6658962423426
C 48.89636785314199 10.562402733449554 330.32591862913915
C 51.705771806138536 10.982019441594655 329.32134770447976
C 51.275537237641316 9.21447611956744 325.97824211225634
C 48.531078942200644 11.715641477551651 325.1963840687414
C 50.76481882374607 14.588481486214445 326.2998709641911
C 53.69858590001887 13.18704518650822 324.3191143448356
C 51.85504977309061 11.797115003712777 321.2900477172431
C 49.36022164756149 14.657419996868615 320.9271622974917
C 52.232892015241816 17.12874319756217 321.237275548021
C 54.30368209583449 15.636281336517794 318.40929976379493
C 51.13985399509901 14.990751508094021 316.39249071702125
C 49.805169124863575 18.53827381071 316.73815194351863
C 53.2163407591108 20.109258307342497 316.12199115935107
C 53.75709571664242 18.001824047619685 312.99234317610905
C 50.28526759464353 18.8913313543272 311.71208391673565
C 51.011921111651404 22.580160131977777 312.246267163477
C 54.403213668611855 22.62438840641122 310.52767712632664
C 52.94195223668296 20.665167169213777 307.6063806230083
C 50.34413061899518 23.41393456254839 307.14733853825277
C 52.90266716599445 26.229916110972365 307.2436617605384
C 54.96460925357511 24.52396734444859 304.5418059937287
C 52.05842604515573 23.514534631227733 302.3089837033788
C 50.546605176336946 27.007764857163 302.4730661846768
C 54.0380743063357 28.398503371883606 301.9158894579151
C 54.123404702695595 26.129501939418446 298.85773611867467
C 50.92008330697552 27.699194293564588 297.5091548472684
C 52.351657605096655 31.17504412030156 298.1068080713595
C 55.443477335863804 30.133533312639138 296.1348041801705
C 53.93837050021517 28.85666177179788 292.87349247145056
C 51.74453528950073 31.96339372403411 292.6065532849383
C 54.46554103645002 34.57395558378978 293.12065762653555
C 56.836733875857156 32.3890797238174 291.08355522634565
C 54.78140777068748 32.26819448540644 287.87400268921135
C 53.5470611757762 35.342502916447884 286.0131522248954
C 50.66885289872079 33.52439508370468 284.29967894542494
C 48.95983961575603 33.4154718628646 287.7278966717736
C 49.93665777156745 36.63412101718027 289.5371655988005
C 48.23178340820244 38.519710414615794 286.68790404063816
C 44.967086496678284 36.58699580598494 287.14884005329236
C 42.40830269502211 38.14771807011965 289.53827552269365
C 41.295823973272235 34.648660714058394 290.5794884062358
C 44.72111840827211 33.885852306079 292.08394630263814
C 44.68336048310996 37.10166357169719 294.0860086255066
C 41.86296584012827 35.22257008724854 295.8485104313416
C 43.73214473844303 31.946418829551728 296.4272847429428
C 46.94341415765677 33.70717396589184 297.4288890124994
C 44.95189388874859 35.82415876757705 299.8779595468608
C 43.419139876387725 32.69301956693398 301.4144357385604
C 46.74151440437159 30.84906025728561 301.5194421879972
C 48.5401326787371 33.72515796837086 303.2509781180349
C 45.6031013400536 33.90075004420873 305.6659348446331
C 45.87653309984144 30.1550858782556 306.29509945193786
C 49.63187576343473 30.62679676990544 306.71048243446677
C 49.325189611346325 33.561159874407345 309.13048348253545
C 47.290454030134335 31.325081949857445 311.4294502669777
C 49.28563786614184 28.123082929616743 310.99037270595994
C 52.46695775966175 30.08095403581105 311.7567857673516
C 50.956836146921766 31.489328051517667 314.95625504728224
C 49.84541574547644 27.976227402651567 315.8817234100556
C 53.301803221780965 26.41327280770622 315.6023345730907
C 54.93036594258812 29.449988174155617 317.2173058412949
C 52.61337836801184 29.52783525232806 320.2370733511399
C 52.7047902188762 25.72750931869822 320.5010521569003
C 56.50759062803576 25.518804085753484 320.63460078265655
C 56.68654101638134 28.69197862907152 322.74934229219065
C 54.49102570195798 27.23020185099811 325.5214104637253
C 54.41006506669153 23.421027139479982 325.28694564681115
C 58.2117184662923 23.225686792078072 324.87662821440875
C 59.69185775709443 26.316082117815604 326.54845958913575
C 56.77936349392954 27.00471209758361 328.93988861079794
C 57.36641310759511 30.74256967420271 328.5518141008147
C 54.84108694076655 33.257246004213314 329.8606126803328
C 52.66197298709472 35.63123697631016 327.85676662926966
C 52.14118767898991 39.238594396235264 328.8978052839654
C 48.97233570287603 41.105312086152416 327.90701398870283
C 50.24122675565554 42.390365551808955 324.5549224591543
C 52.112976321525906 39.23284856616712 323.5285928493982
C 48.934638695439546 37.252739586863484 324.22273721672104
C 46.57132201116466 39.493830765355725 322.2461842168002
C 49.01566605751921 39.64911347609606 319.3313963321135
C 48.914949756411445 35.854262932237695 319.041548674753
C 45.12731570371754 35.776871861250974 319.3897661487077
C 44.72603333039815 38.7515581668839 317.06093563169054
C 46.822152253534654 37.00154844617198 314.433007377784
C 44.482165755802896 34.01012853124353 314.51955888124223
C 41.5220149051127 36.395885652086605 314.5592167743819
C 42.992499409662855 38.223188366382175 311.5546410875508
C 43.544823731006176 34.935142784702286 309.70963357438774
C 39.84348296085377 34.07123161771169 309.86656322652465
C 38.75059086283129 37.65311896113219 309.2046252102789
C 40.736760454964916 37.857800087327966 305.9675529756991
C 39.43261193486453 34.399742530280115 305.0422186423734
C 35.8320073070314 35.602739536993276 305.3332995363966
C 36.83708846067818 38.9028358721964 303.7387146978523
C 38.284811455093276 36.98684233372269 300.78836030188
C 35.10772317114303 34.93833169845641 300.31242008446026
C 33.24232449059916 38.253876856449956 300.35704538531036
C 35.345540601045435 39.73840453225451 297.5513025411669
C 34.916994644164895 36.52572478367266 295.5674832318218
C 31.135379717399992 36.871731228443544 295.81374300594103
C 31.445441032014255 40.38791642657557 294.37491818351634
C 33.54949482611333 39.12498523512852 291.4690269786644
C 30.913018661567857 36.499574361923884 290.6949030560435
C 28.14661876439312 39.09421908787827 290.9749152238836
C 29.942787403146866 41.175080104389934 288.3355020147406
C 30.40365169373839 38.0943837722685 286.1393369884227
C 26.672548519336413 37.35519076917995 286.38998546964007
C 25.3366449555622 40.88979833441534 285.90338950781495
C 28.007107214532674 42.15763818184808 283.45595354553814
C 29.145218426385142 39.06334661745879 281.5341803387226
C 30.155646086745488 41.08205270875634 278.4701496990669
C 32.42599311552885 43.63936163178934 280.164412566312
C 33.47236837617882 41.50354381770815 283.1565545953557
C 37.0559882236107 41.08595928558577 281.93257731172935
C 37.616743370123174 44.85244681800305 281.7413126363117
C 35.8877471659689 45.622998272180816 285.06643269177505
C 37.66971121681403 43.15968357031762 287.3753744538914
C 41.34278924736844 43.745155114286824 286.5614943201815
C 44.65853139228873 43.06402506613329 288.26659633979676
C 44.97826263668392 46.61562237730794 289.6831245118206
C 41.33488408258334 46.54172726143902 290.7929190376041
C 41.73900223660186 43.194096751814214 292.5543419382581
C 44.91349243178676 44.24203830792292 294.3874925133281
C 43.236286816326505 47.364751408983736 295.7748848170041
C 40.1886362710423 45.41249786741077 296.94785090303134
C 42.291167892789794 42.79488192979903 298.7363515400131
C 44.737941778549164 45.29466624596905 300.24045695750544
C 41.81149583404428 47.27276786433265 301.65111160186075
C 40.135815985742646 44.11797504414478 302.91574767526043
C 43.232777462662746 42.97881147872298 304.8090116889059
C 43.71102771324018 46.35326239072307 306.4930455606162
C 40.09109943053864 46.1464932620067 307.633174232782
C 40.744369222742314 42.56701367663453 308.75046451284925
C 43.97379959976174 43.491525093859686 310.55321330612617
C 42.35003530279109 46.48465114442851 312.2428149771329
C 39.86388396800846 44.25996514887903 314.065234196637
C 42.615183464891864 42.06961772496405 315.5067392034384
C 44.57765958275981 45.1042300693055 316.67210956423975
C 41.47982653749436 46.787893804190404 318.19424486371486
C 41.44361835653721 44.31091522460878 321.10867814565216
C 45.22413654515432 44.48595932350518 321.32622662484147
C 44.990179999908605 48.262086748481025 321.28356387682624
C 41.94464075997425 49.281745833966774 323.3429077936944
C 39.10287687873664 46.83057327039645 324.02145224475885
C 40.14536158385615 44.83012171541857 327.0935379630851
C 39.311490404407444 43.44012389570349 330.4891619737131
C 42.310814359110275 45.20845644409946 332.01511416861933
C 42.00790449280713 48.54933154507711 330.2341871679487
C 38.19870251910545 48.786613047964345 330.3848505297903
C 37.54024253480097 46.843322446408784 333.6213233967156
C 34.79965111485186 45.15823372409558 331.59127800238747
C 33.30512421121766 41.684025169494575 331.8605700911139
C 35.89585428713983 39.12755406676818 330.82671928938584
C 35.38875678861068 36.216929269454724 328.44129653402285
C 35.16383156427649 32.774837452744514 330.0351390506327
C 37.248839874348896 31.346249270293665 327.16187072209993
C 39.9711405103958 33.853067138083134 326.3091728584705
C 41.9796956016732 35.87712358087927 328.84632503810235
C 42.11454605262459 39.67271766501707 328.5093675468423
C 39.2271321082732 39.637842965486556 325.986146866223
C 36.25074906883375 41.976469215210955 326.3046710085215
C 32.829145065980654 40.36688995218812 325.99888885932114
C 31.346681981396188 43.284545881035875 324.0650946416657
C 34.20925371031183 43.145617302780266 321.5703261445651
C 33.23787256632682 39.56831111048252 320.7019853720632
C 29.640003779447902 40.597386989576826 320.02924518995695
C 30.984803761938437 43.10579580789495 317.50376249318487
C 33.39173607345811 40.52413753737811 316.071390863623
C 30.85089519900119 37.68435945860729 315.9985266991395
C 28.140681280489662 39.87946890764407 314.5073737957042
C 30.427011780089572 41.173992525671316 311.75512321233424
C 31.535990069285877 37.73626573327289 310.5615318556112
C 28.076919909263417 36.21708298971951 311.08130505753525
C 26.46327123397106 38.84103678230046 308.8358866024721
C 29.195523302807874 38.439885142660316 306.2264256548455
C 28.912030012084863 34.64228174032692 306.2834308061386
C 25.11098188863446 34.76918683371974 306.0892562404183
C 25.45772484607527 36.88722501962187 302.952075494342
C 28.23451107247449 34.7163076212317 301.4937806362779
C 26.1067942128558 31.598052343287375 301.9699077268881
C 23.188351723129433 33.238519664735286 300.1639975650669
C 25.463654536573348 34.65028821717469 297.4624614300813
C 27.3006130764982 31.390945394316347 296.76585355482655
C 23.957697877017008 29.61572375067186 296.318670932522
C 22.764277128194948 32.3062376316743 293.8986201369443
C 26.110218039490167 32.19519889142884 292.0646199479816
C 25.921380010489166 28.41700274010331 291.6679659766598
C 22.25023204205554 28.604437696051885 290.64037279000877
C 23.003994703307296 31.246933488605357 288.00867606557557
C 25.913807546012976 29.11391316326178 286.79672924297677
C 23.49133085763412 26.276803712285144 286.0095747720366
C 20.90079386002475 28.504248968258366 284.3116434785074
C 22.846869673337896 28.63719119383514 281.0391713601026
C 24.459328905691134 25.19608669154797 281.1505481824174
C 25.221710563303407 22.363275417812044 283.4774930409539
C 28.64279528277682 20.83839596473501 282.90277146350195
C 27.87058618816367 17.114940109359186 283.17986895122465
C 28.988126397144068 14.537668762493162 280.6313790516588
C 27.5516591664372 11.028421492540305 280.39948611370085
C 29.473879979056218 8.134848599882263 278.86796883683957
C 27.74104507529663 4.808598647095787 278.189316372715
C 29.915301130298964 2.0446475925331002 276.7613240998676
C 29.386203912860598 -1.528413600964285 275.66684118078786
C 32.52299266233854 -3.6773168195339516 275.72262258503775
C 33.3048524877529 -7.381627064265351 276.1402365697054
C 37.10923491079995 -7.4807642466610424 275.9039887689701
C 37.57380535499198 -3.9675732526853844 277.3060244138759
C 38.78484634565881 -2.057817833916948 274.2401704404055
C 35.77702794176032 0.25771318031799023 274.26401696577415
C 35.96344404745882 0.4756334408104256 278.0700175061277
C 39.5844839081834 1.6173890664343138 277.8331061907191
C 38.55599044901361 4.060985144238533 275.09930051622916
C 35.782421761936405 5.512912722775906 277.2611212349895
C 38.028042927941556 5.758002255950759 280.33207668894136
C 40.588919081040494 7.651258001196277 278.2410579588102
C 37.93817782956422 10.090053256052988 276.9967918074187
C 36.67041039241893 10.338506749421617 280.57794467124774
C 39.90253226592872 11.789132127933085 281.9794456840975
C 40.38319213118502 14.33821533235756 279.1781215966478
C 36.89766873995744 15.724534309154475 279.83571510258435
C 37.43812426929193 15.532741344038717 283.59980725531744
C 40.49370815850944 17.78045412880901 283.2521741918375
C 38.62867940952199 20.15930009636588 280.9341805589754
C 35.956690918204664 20.987043831188636 283.52076151159906
C 33.18187527531674 18.43335510856848 282.9784007185023
C 31.525031266863 16.482232550987725 285.78178033395403
C 32.02652751068437 13.14194679815739 284.04114024210674
C 29.732706174242395 10.172115341204705 284.74975376053044
C 30.891939952703957 6.919407891790315 283.13213192278766
C 28.56595410841625 3.906656143342353 283.1459914354262
C 28.515316729477515 0.4541212446744038 281.58478263435416
C 25.563772803285122 -0.09168568811486204 279.24576432584075
C 24.588331752359196 -3.2589477889843526 281.13731180552554
C 23.78277753329974 -1.2173393734943991 284.27153014835477
C 21.555424185923176 1.5758021205806758 282.8976905459814
C 17.863141378739424 2.0017185254304497 282.1485354284263
C 17.04380051608953 3.818720023738279 278.9178928107242
C 14.10636480528992 5.845389273376043 280.2448445478872
C 15.253666283909359 9.404132071635278 280.88629276179864
C 18.891109833467965 8.296271477288611 280.89022738729994
C 20.293691271704166 11.447893908979232 279.2740579844461
C 18.410932976903503 13.854172807711732 281.55086860557935
C 20.60408296535312 16.19601294785825 283.56725769372554
C 23.525270037031163 15.83433352336377 281.14363327400156
C 24.28024186165134 18.267159705416706 278.32709428325023
C 26.950240968558017 16.034930328977985 276.7843609278415
C 26.384414225314995 12.323399405413458 276.14505631647114
C 28.955360553741755 9.988849373007055 274.59164214560116
C 27.780886071089824 6.546911384218643 273.51238721272097
C 30.45213014113752 3.9390111994905928 272.80419621202657
C 29.882753964621934 0.46977218341068183 271.41212138798187
C 31.930380429783344 -2.242409441255123 269.7198592160482
C 30.770577003723236 -4.1409298847208795 266.6353011065816
C 30.214066067492432 -7.912618685849467 266.66876460273426
C 28.929597396626004 -8.804282647413384 263.21696907219564
C 29.78256892568885 -12.507489461312527 262.9602749916266
C 28.281252117990995 -12.639887832568 259.4748401050042
C 25.952449678255352 -9.628642414813712 259.84029818400506
C 26.25160528586829 -6.380782794967616 261.82301428928713
C 25.56088435556929 -6.4685215920689005 265.5532613186829
C 26.05878941307544 -4.166501889463378 268.5164972426682
C 27.85797818630185 -5.33648166330264 271.62880163263776
C 25.250351069120168 -7.289886582679897 273.5360907428056
C 25.11950313273375 -5.082958712605572 276.62952986141266
C 24.260861762676907 -2.081626323027171 274.43810569082774
C 21.320170696337364 -3.5631306550133774 272.5162304814779
C 18.66869302296589 -2.946543939684887 275.2390061594261
C 19.659802708594707 0.7259068713993732 275.267127497131
C 19.76552581060332 0.8884692295257146 271.47740680348477
C 16.294086318217595 -0.6328081561070489 271.16762579140527
C 14.80405764908005 1.9578722634756192 273.54941957400854
C 17.015239397128745 4.88901289767543 272.5811683449794
C 14.02925137197705 7.1651658297740575 271.90055231208163
C 13.262927094423423 7.111471416457033 275.65096375097454
C 16.634066275523026 8.570331866580553 276.6695058514528
C 15.892520754844721 12.229693959551021 275.9282665446497
C 18.29351575127443 12.557066408222902 272.98035687566795
C 16.312392319583072 15.136646687772476 270.9894405016657
C 18.042973029592446 18.50087004275159 271.1352609403053
C 20.872899616666125 17.132878208649533 273.2639901233329
C 24.5668165743362 17.154048694622848 272.35020989188865
C 25.882224266956015 13.643459576538552 271.64486956301624
C 28.775570427618785 11.880728751688583 269.9460058886855
C 29.682597156206665 8.253869758869117 269.355817528793
C 32.80748816533218 6.1253831049030465 269.56833773978417
C 33.54407549053796 2.442270486458154 269.17952586834656
C 36.19721132144063 -0.22308316363434913 268.68558483347476
C 36.24381214867191 -2.412339503312969 265.59645713761284
C 38.5488228979303 -3.9925427324431557 263.03773978761365
C 38.828521122211875 -3.131299853738044 259.35643087960426
C 39.06894783872682 -6.748006183948234 258.1514161032664
C 35.30324737021572 -7.018495631430512 258.67844841316935
C 32.933578863143325 -5.798068891269979 256.0037584959364
C 31.363734649955973 -3.05350168440065 258.1384793869853
C 34.16151601174598 -1.4131261917082576 260.11233557967313
C 32.617491527243196 -0.09508541362721146 263.3382325893647
C 29.127614891793392 -0.6089006102141177 261.94312967868217
C 27.868836168865 -0.16966943431024467 265.506017641659
C 28.747761425084878 3.532931468248982 265.6883054431811
C 27.13429991466287 3.9978146050178687 262.2691473646184
C 23.899695367355747 2.454848818325802 263.5390811025818
C 23.9509253025604 4.4961256467659005 266.75307498670406
C 24.669924021499558 7.783293620916354 264.9659952456651
C 21.92482742545242 7.199509887185638 262.3852200576331
C 19.38684984045203 6.570384936241306 265.1431509167045
C 20.642960018102894 9.60603453808732 267.0608298885352
C 20.132120999590732 11.683262744016933 263.9115289175624
C 16.635868410753588 10.25918295804547 263.4729684259478
C 15.886201190100385 11.248653251630621 267.0842644705884
C 16.872352465555633 14.884605197564742 266.5839024987441
C 19.992578555948317 14.751893957385489 268.7282619506672
C 22.608201908160307 17.446199440911215 268.1073863337514
C 25.61285561073964 15.387859684409557 267.0073098069798
C 28.61774981176294 17.53754662488401 267.87563030036665
C 31.095894790466065 15.796119470418306 265.5596104533099
C 31.79530243693701 12.61809328369621 263.6284732858231
C 32.1963975501033 9.3589450029147 265.47091032484485
C 35.468544217497964 7.930784606338661 266.73298337092524
C 36.21938105675674 4.61823788229465 264.9922648436049
C 39.18029875660264 2.747829817427309 266.4835956406732
C 40.85420152294491 0.064121796061415 264.37345139815903
C 42.64574257505412 -2.7282884258114195 266.1858657581103
C 44.08643733042299 -2.0848918357207857 269.62500757883674
C 42.937092411892394 1.2449560054802526 271.1165819743627
C 46.11573221434259 1.577201834104864 273.17807740451394
C 48.074628955119536 1.8056522833504547 269.90070134892966
C 45.792392982934466 4.656846009473021 268.72112750619965
C 45.68622281555133 6.780189491508442 271.88622512064865
C 46.59544709425801 10.041656732689031 270.1216636532929
C 43.33890422894811 9.863711218164713 268.1566069075571
C 41.18772900930753 9.059244456765482 271.199303711412
C 42.618537124762305 12.046460305266882 273.0660662036004
C 42.38682739855731 14.192899646294974 269.93879219346786
C 38.74012214207893 13.236865909870916 269.45471344833436
C 37.94080303477908 13.930075432475645 273.1121234295935
C 39.53083151748203 17.35706893494187 272.67224693666395
C 37.21532696674883 18.165761653764115 269.76773931983877
C 34.13806315604563 16.887205082892965 271.6195921140106
C 35.20623936662877 18.990966054226497 274.6172038009209
C 34.080159815991806 22.175961979239105 272.8746761311957
C 30.431833432694283 21.09312619438128 272.8296053449115
C 29.835528628077487 23.39648354786646 275.8225502482922
C 31.678632987659885 26.755529762991557 275.69575381541785
C 34.732811378703765 27.209667236321884 277.90708149748366
C 33.19134569248962 30.175635099145985 279.7369700850483
C 30.16543768892377 28.146728143638764 280.832909552434
C 32.27719938579786 25.274480538445673 282.14983722585936
C 34.75494640314791 27.666226331129096 283.77442069880715
C 31.970068179521316 29.598559709080543 285.49533071434223
C 30.610209282034187 26.30756246249991 286.85678045994865
C 33.88847856566264 25.02289184659547 288.2853266378162
C 34.564655356593484 28.448946562682416 289.7848575099324
C 31.11818812253881 28.332415299129746 291.38233989230434
C 31.61566605499083 24.711698000155103 292.46620757858324
C 35.057608242919464 25.46984811267436 293.9059523612492
C 33.804051731762435 28.410236099047186 295.9704497243454
C 30.971954128224816 26.461247604774574 297.5962453354181
C 33.46197714515203 23.778424696085555 298.6241228761524
C 35.77992147712388 26.345906388432976 300.2262235546502
C 32.75025342214596 27.7554208165807 302.04410830691336
C 31.378130514090614 24.43232549377773 303.31481495029146
C 34.819603541799744 23.410750815689287 304.57621382091725
C 35.143441551213556 26.768178428858185 306.3325285754397
C 31.766059679221737 26.33958778232375 308.0437116901636
C 32.59753342772124 22.779255926582564 309.106788473501
C 35.91706820908749 23.68107118773953 310.72669943703875
C 35.45855708336801 27.1935371815698 312.1059030958263
C 31.704289188028554 26.949675785505747 312.65604622265926
C 31.837235184523507 24.935950521029696 315.8890623611391
C 34.359580141610095 27.328556824112326 317.4470672432295
C 32.08384050966078 30.243393023069025 316.5433515179205
C 29.188277224248445 28.458467470892945 318.2457902203385
C 31.368311961117296 28.153331399783657 321.3515154730349
C 32.03423979265383 31.897962790409 321.2701490230745
C 28.29089705428474 32.48952968617785 320.9246350364167
C 27.742231315853388 30.401384714034872 324.05853457396023
C 30.308054392019905 32.60669007914822 325.8110411774519
C 28.861533696586456 36.05013833691069 325.07429612869515
C 25.125553920519756 35.60049601926511 325.64580230275965
C 25.135252670583032 33.17833554268088 328.570186643559
C 27.752669579821887 31.33220479266959 330.59169587166383
C 29.819514939512825 28.341928524745878 329.4881473254887
C 29.376628333179713 24.7014448497651 330.4591224333297
C 31.97638108154121 22.256636984177874 331.7109730775665
C 31.249916023229847 20.269734849337635 328.5447038268427
C 31.658559530097957 23.172763974438386 326.1135310224156
C 35.059886980709344 24.00783370444589 327.6296512618743
C 36.13591149939381 20.422313584498667 326.8243261551841
C 34.959725870811496 20.14540115876691 323.2097935751129
C 36.62294522891788 23.529934669215805 322.6565282061025
C 40.029671769949104 21.82797516598642 322.79290301151497
C 38.999546730495105 19.713761378400285 319.7903406300991
C 36.94161032489459 22.358770542730667 317.98623683170865
C 39.968579724950494 24.664918789427567 317.9833764829412
C 41.939299806010894 21.88590346907887 316.277535368097
C 39.2533159571665 21.830819867988684 313.58759984081144
C 40.20728930055266 25.455157032814096 312.9305287985799
C 43.74597700658811 24.33924510987636 312.0526356608973
C 42.86147914475553 21.58368137610538 309.5904129859825
C 40.82067233756723 24.107324263383482 307.61416942788054
C 44.163096860040284 25.718003261647866 306.77220641922236
C 45.54120070349207 22.280138513236256 305.8234349353484
C 42.8289212993842 21.088352895693472 303.43888922476793
C 42.509937492792304 24.41236874855008 301.60229080896994
C 45.90204871739199 23.914556194172054 299.88763441812245
C 44.636158788885794 20.39891396557107 299.143282005359
C 41.447898078672054 21.837055765798706 297.62666018128584
C 43.41541710682848 24.254934001077583 295.4477282917226
C 45.4918949613706 21.373846959753017 294.08574930160637
C 42.53295629924477 19.183150331191133 293.13248003577695
C 40.44461611765588 21.83280366391297 291.34024631144706
C 42.859008733327855 24.444590655456853 289.95739909681316
C 44.21181689604894 22.655531914962783 286.89083963947957
C 46.470769123255394 25.62777977214742 286.11030200001716
C 48.12594609296186 25.50308237910167 289.5399025262114
C 49.13162013444374 21.876358565915044 288.97646456673584
C 50.944135271329124 22.83863047397475 285.77407183110944
C 52.661520390476994 25.81793590499631 287.4121443288743
C 53.77371196032991 23.368825609669763 290.11103491962115
C 55.19046012132046 20.921028362751713 287.55906983734036
C 56.89403881393553 23.89788975959395 285.8799445804582
C 59.24616943071878 23.890626675013426 288.87817094166485
C 59.38641905666383 20.076749009949605 288.61775435209637
439
Mode 7 - Frame 7
C 49.1535275545923 35.97232144881399 337.399472131116
C 50.58002686269086 33.78544181511767 338.73404884112165
C 50.42375022295413 30.550906031481784 336.7771311023153
C 50.196629754534534 32.932558327366856 333.81708743111096
C 47.45666754085998 33.85938416291541 331.3639265125035
C 48.979242574405504 32.131409725300564 328.3416482680173
C 47.86783447841896 31.31988393864918 324.81065439503215
C 46.956157238842756 27.64499233926777 324.3234811516787
C 46.659841092028664 27.13009575527933 328.1034529214395
C 43.31050127244542 25.3396738642712 328.06955815018847
C 41.52900395164688 23.28037509225787 330.7382041476148
C 43.10835471609303 20.038282667863275 329.4146290522832
C 40.93500429495592 17.374492284603722 331.0135571196847
C 43.21000450599131 14.326307143114738 330.70249287154854
C 41.83468673327072 10.816643624319143 330.22899449188344
C 45.33399050887508 9.387576996091948 329.65990451164436
C 48.89428236345013 10.557896621044287 330.320567752425
C 51.70379618239732 10.977724322927571 329.31638205508773
C 51.27387080903185 9.210978809560979 325.97281461502536
C 48.52952867509185 11.712380235790334 325.1912829746638
C 50.76321096644641 14.584938719271426 326.29566046418773
C 53.69715020640811 13.183939501748528 324.31486926566
C 51.85390949272662 11.794698042815586 321.2852968687939
C 49.35913492444381 14.655108379239214 320.92282800544984
C 52.23179022720057 17.126354946508535 321.23376907145274
C 54.302844927238574 15.63451180825462 318.4056572873285
C 51.13920749149501 14.989414787545632 316.38839994549653
C 49.80449132118025 18.536869556134082 316.7347312223605
C 53.21571650169504 20.107990450840987 316.1192029208603
C 53.75678017567485 18.00122187755403 312.9891597057226
C 50.285051313287774 18.89098088031705 311.7087971932161
C 51.011643293055045 22.579710428320542 312.24381145441225
C 54.4030863271259 22.624314753032007 310.5255143666927
C 52.94208716040656 20.66567753346105 307.60370158827345
C 50.34427369518363 23.414525700566667 307.1450231977851
C 52.90278906135925 26.230506405712944 307.2420924273081
C 54.96495701323549 24.525108407121852 304.5400604434565
C 52.058948240604145 23.516067237790452 302.30683495499187
C 50.54708985627103 27.009262283354257 302.4714696323169
C 54.03858042654476 28.400125954233715 301.9147875529984
C 54.12415443376733 26.13167288275163 298.8562158859793
C 50.92090975396275 27.701579687824935 297.5076994535968
C 52.35241889436556 31.17733124690447 298.1060680645311
C 55.4443674930439 30.136162711839233 296.1340639955061
C 53.93948428579142 28.859845468314568 292.8724181255816
C 51.745656606310554 31.96661087238133 292.6058930382171
C 54.46661691370394 34.57710700595795 293.12064197931363
C 56.83795567290951 32.39260243709172 291.08330638818853
C 54.78284317503557 32.27227086998822 287.87359149227683
C 53.54861784658537 35.34691331243719 286.0132048841128
C 50.67053715742193 33.52907476472489 284.29920725048163
C 48.96129475637561 33.41951522200344 287.7272978207918
C 49.93796749489432 36.63787412867307 289.5372188692349
C 48.23328168221709 38.5239474849121 286.68817386830875
C 44.96859862250434 36.59106311047923 287.14855853015035
C 42.40964189277237 38.15131565943115 289.5381053058714
C 41.29704988797504 34.65202717105068 290.57855098118995
C 44.72226637489508 33.88909041263646 292.0831669110797
C 44.68433670426995 37.104573137248295 294.0857805086905
C 41.86383262082583 35.22515546492519 295.8477568217083
C 43.7330196951879 31.948951592214076 296.4261094990148
C 46.94421002304523 33.709558431132734 297.4282441092678
C 44.952483167884566 35.826085516179894 299.87754637822576
C 43.41964899329269 32.69466574053566 301.4133587998733
C 46.742040638030936 30.85070829052605 301.5182741396552
C 48.540504360081094 33.72649055179416 303.2504743937351
C 45.60328878033405 33.90160696255712 305.6652463338269
C 45.8766945702917 30.155821038347696 306.29373293098587
C 49.63200719216233 30.62747301490453 306.7094990342938
C 49.32510687259447 33.56134998983678 309.1300485567114
C 47.29020056708728 31.324811481921614 311.4284196944754
C 49.285438507009694 28.122903910866388 310.9888815667066
C 52.46668161596025 30.0806320197172 311.7559533367725
C 50.95628023202504 31.488337595703637 314.9555811704428
C 49.844794915102874 27.975049538145875 315.8802482987524
C 53.30120009992857 26.412142720515767 315.60084169108114
C 54.92960572950031 29.44852516315542 317.2165885836497
C 52.61234450956834 29.525725421605074 320.2361626593655
C 52.70372948072083 25.725338889885787 320.4993635590318
C 56.50652076813905 25.516601426241028 320.6332114714193
C 56.68528608030604 28.689326924531848 322.7486267004317
C 54.48951870385691 27.226966219538447 325.52019526331003
C 54.40855986764555 23.417829225523008 325.2849322657677
C 58.210243129048266 23.222564727902963 324.8749202414339
C 59.690251679134605 26.312612503264802 326.5475208470849
C 56.77755201823701 27.00076855025105 328.93883236937023
C 57.36464960156061 30.73871102221603 328.55157709379137
C 54.839217123780756 33.25314404877391 329.86064068117446
C 52.66028077099158 35.62754592811311 327.85707587914203
C 52.13941387037127 39.23469117189581 328.89880183350493
C 48.970660063683574 41.1016244706407 327.90811148091717
C 50.23982035055992 42.38736591285796 324.5563813858998
C 52.11164987544688 39.23005381085356 323.52957969020974
C 48.93325111690004 37.249802744343064 324.2230451223751
C 46.5701027682724 39.491309409730796 322.2467410623639
C 49.01469104932447 39.647199169629154 319.33219138283533
C 48.91398771388139 35.85240115845004 319.0415737503986
C 45.12632468358183 35.77494651245309 319.3894355457591
C 44.725257916200135 38.75012120580774 317.0611612009377
C 46.82161078540689 37.00065946728775 314.43305341716916
C 44.48162490475855 34.00922036132151 314.5188074858762
C 41.52146715985931 36.39496638205177 314.5586782549991
C 42.99220231835613 38.22287705971193 311.55457898225666
C 43.54467856851216 34.93519501248206 309.7089769970714
C 39.84332222441268 34.07124220315164 309.8654464121143
C 38.75048075995256 37.65326150453062 309.2041053573168
C 40.73688661384129 37.858567888348894 305.96721263027416
C 39.43282271045327 34.40069050963372 305.04113178191204
C 35.83219044979546 35.603641677342914 305.33217067076623
C 36.837366716751106 38.90401662850211 303.73824463687373
C 38.285305562421186 36.98857181178428 300.78764553320354
C 35.108258945903984 34.94017494597328 300.3111139193254
C 33.2428420447805 38.2556993166846 300.3561334154359
C 35.346205138562986 39.74066242827392 297.5507679415152
C 34.91786274127042 36.52831723131686 295.5664084636814
C 31.136219710996965 36.87427826842382 295.8124058968255
C 31.446375232232562 40.39056333492701 294.3739546980354
C 33.550659995861324 39.128000905815746 291.46811416756566
C 30.91429917615905 36.502616957004186 290.6934361549579
C 28.147881002802 39.097199743947456 290.973403176691
C 29.94428585973928 41.17819151521984 288.3342909984085
C 30.405418161336655 38.09764616800226 286.1378899190034
C 26.67426456943294 37.35844434424715 286.388065312996
C 25.33845681741512 40.89312537875712 285.90162492321844
C 28.009168713660223 42.16104931127285 283.45453465413794
C 29.147559221364425 39.06688152836079 281.53268040786253
C 30.15837204437913 41.08580269840361 278.46892258113195
C 32.4284150177137 43.643080037695974 280.1636544840312
C 33.4744875131734 41.50699633668789 283.155757301911
C 37.058227093407474 41.089750707792376 281.9322380785146
C 37.61887964516756 44.85630622371989 281.7413726266844
C 35.889380890246066 45.626608667344115 285.0662696579262
C 37.67111478711479 43.163370987320434 287.3753915672596
C 41.34424208604169 43.749183997317495 286.5620653381533
C 44.65983533980401 43.06791089906423 288.2674005313106
C 44.979234386046585 46.61930699765534 289.68450126841
C 41.335747126780895 46.545051057589134 290.7939664881398
C 41.73991638290265 43.19720892346809 292.5549059920401
C 44.914246172271326 44.24491929754136 294.38847476856006
C 43.23689405311886 47.36734507346334 295.7762963212162
C 40.18925947868542 45.41485143346085 296.9487581330544
C 42.29172399231024 42.796978835121855 298.73696173482057
C 44.738350437537946 45.296524783044646 300.24166609877875
C 41.8118384101821 47.274311130162346 301.65253347064066
C 40.13612749131459 44.11929926752776 302.91651308093435
C 43.23295010103256 42.97980831137656 304.80978916058535
C 43.71107468200049 46.35391421341567 306.49451011336987
C 40.09110397473342 46.14692712500505 307.63437045291226
C 40.74429469262714 42.56724281270766 308.75103416856024
C 43.97356193000835 43.49141198519399 310.5542285031778
C 42.3496712985732 46.48417817891839 312.24431469391726
C 39.86337594084496 44.25914091643115 314.06611324181847
C 42.614552018783606 42.06850340125253 315.50741281752306
C 44.57691278967508 45.10286951785515 316.6735770421001
C 41.47895026799652 46.786197969254005 318.1958099294677
C 41.442504061689974 44.308626239978665 321.10976028909886
C 45.2230002304649 44.483626652087665 321.3276537504251
C 44.98904567119724 48.25975990066578 321.2857376508355
C 41.943344680196844 49.278992085769374 323.3450515832584
C 39.10154588790296 46.82767452905106 324.02288968167005
C 40.14377853188984 44.82660820836134 327.09465940208366
C 39.30963902659933 43.43592495522773 330.4899463137395
C 42.308840680133656 45.20395278638928 332.0164904525016
C 42.0060720397516 48.54518779683957 330.2362066189194
C 38.196860835406575 48.782436462825075 330.38662608463443
C 37.53815131778471 46.83849274927969 333.62266354057886
C 34.79771567745698 45.15381129199863 331.59206764518
C 33.30316469316531 41.679547503788505 331.8605504433302
C 35.89397383737048 39.12328338164992 330.82638654486294
C 35.387054691760284 36.21313275396782 328.440350339994
C 35.16199577822636 32.77071682560248 330.0335001262035
C 37.24723297910818 31.342695890571225 327.160128130057
C 39.969593057089234 33.84968824333385 326.3080839055838
C 41.97794500624074 35.87324454144445 328.84579146661014
C 42.11283432467513 39.66891147874095 328.50961285556394
C 39.22562997317527 39.63454522996381 325.9861535783331
C 36.24922942798916 41.97310869627266 326.3049301861107
C 32.82764352307852 40.36359436406121 325.9985638645181
C 31.34534208332446 43.281645887936335 324.0652360736109
C 34.20812275032836 43.1432232980576 321.5706609655197
C 33.23681559163145 39.56608592091359 320.7015276814926
C 29.638998503685535 40.59530237446222 320.0287079692285
C 30.984017855955805 43.10423260092432 317.5038430430082
C 33.39108418057521 40.52286416142303 316.0711345137271
C 30.85025057850634 37.683096224941536 315.9974996197555
C 28.140163990059797 39.87853059146964 314.50656823931695
C 30.426738105240688 41.17362656644476 311.75476322577623
C 31.535806806613724 37.7361407712567 310.56055071409344
C 28.076687737919432 36.216858271511825 311.07976512439564
C 26.463237927757223 38.841312676557614 308.83473886485115
C 29.19568432551211 38.4406568308974 306.22539395751454
C 28.912168490315764 34.64302585174738 306.2816681089665
C 25.111118167517606 34.770018012107386 306.08725705418726
C 25.458123590771844 36.88865207184346 302.9504793674543
C 28.234991451654636 34.717966959549706 301.49198822491013
C 26.107241829971297 31.599608610432337 301.9674812929831
C 23.188916224101593 33.24046290713373 300.1616666413731
C 25.464415685603974 34.65263220174688 297.46047162147016
C 27.30141803291616 31.393365115536596 296.7635160495473
C 23.958506709005594 29.618224746697337 296.3159594633677
C 22.765249539851602 32.30912773082752 293.89618055954503
C 26.111279155071085 32.19822432667993 292.06231746855883
C 25.922494230705905 28.42011061521479 291.665313693877
C 22.251293797584562 28.607702556221394 290.63769339728856
C 23.00522842074902 31.250312411995683 288.00610193762554
C 25.914987007749666 29.117291157739103 286.794111843147
C 23.492442831457044 26.280176704611588 286.00713312136105
C 20.901926994077453 28.507550905355885 284.3091135634607
C 22.847869165613645 28.639850659655966 281.0366198682042
C 24.460166577081015 25.1985585725673 281.1484709341709
C 25.22283989051235 22.366212946079205 283.47587029466257
C 28.64397418405659 20.841293300058098 282.90129854834726
C 27.87202974658369 17.117908015495132 283.17972585539434
C 28.989320431080248 14.539984436621037 280.6318076949925
C 27.5529689535127 11.030588759273838 280.4012450139264
C 29.475108453346795 8.136669768729474 278.8702982250265
C 27.74232679705345 4.810134179324777 278.192987007978
C 29.91650314992546 2.045865446247356 276.76549781252425
C 29.38740148943588 -1.5275641615610005 275.6722267824904
C 32.52431769091181 -3.676280148189349 275.7281353030452
C 33.30644532326359 -7.380421762972172 276.1467827966569
C 37.110799521682644 -7.479428108293245 275.9098838400236
C 37.57544173863576 -3.9657713634303424 277.310732856672
C 38.78584477180821 -2.0568954644422783 274.2440629172611
C 35.77789756063935 0.25847700949700547 274.2677196196842
C 35.96497251414364 0.4775818830262838 278.0736287803248
C 39.58592279218288 1.6194634468150169 277.83571606950596
C 38.55681265218732 4.062172722605586 275.1013251474661
C 35.78353789028631 5.514599715568222 277.26318337488283
C 38.029690169192776 5.760744491302136 280.3336797709405
C 40.59010364017379 7.653509200423344 278.24160903410547
C 37.9390085964421 10.091792373729984 276.99705650578375
C 36.67184591658592 10.341226339032437 280.5783534624392
C 39.90415616880038 11.792428725170204 281.9788719241891
C 40.38420636049513 14.340738794749594 279.1767103855538
C 36.89870475133897 15.727072349489204 279.83446812263225
C 37.439729525817995 15.536294294815459 283.59842738033586
C 40.49524869565142 17.784085357625 283.24971423376394
C 38.62976161073029 20.162284454701503 280.9315837852816
C 35.95804785861008 20.990427797478226 283.518282693129
C 33.18324064124853 18.436479087695492 282.9769565616881
C 31.526906486198016 16.485990759821366 285.7811304638733
C 32.02837970725166 13.145372032027735 284.04146656690926
C 29.734795047148882 10.175685384476282 284.7514334883977
C 30.893993807597266 6.922579985431063 283.1346058709743
C 28.56814571686928 3.9097481782179 283.1498300291555
C 28.51743350610401 0.45673181146024855 281.589708538314
C 25.56549910365246 -0.0899346396109302 279.25137492612356
C 24.59054061997281 -3.256660292617977 281.1440899819407
C 23.785418093922328 -1.2141100271159375 284.2778155792727
C 21.55768298015856 1.5784895071003526 282.9034805831787
C 17.865250141450687 2.003990771630086 282.15482110065517
C 17.04525386976817 3.819941187718261 278.92373779407023
C 14.107935352637115 5.8468695345603905 280.25055021890273
C 15.255159205085654 9.405874791358105 280.8906935532573
C 18.8926687280409 8.298203376973698 280.89435097777493
C 20.2948197172445 11.44939723312294 279.276939873325
C 18.412300979924993 13.856283006796303 281.5533305195892
C 20.60568633419814 16.198801374057524 283.56864053702157
C 23.52647063562679 15.836542471916195 281.1445762601024
C 24.280892746120113 18.268629474839308 278.3271899966109
C 26.950754705597987 16.036069699962653 276.78469733846845
C 26.3849815827748 12.3242860010002 276.1466127651994
C 28.95578835167989 9.989390915471363 274.5934995812368
C 27.78129218412493 6.5470444408945845 273.5155126590785
C 30.452547408711776 3.939057413536156 272.8076785468646
C 29.883108337896115 0.46935045185298807 271.4167885605043
C 31.9305806250796 -2.2432507932977916 269.7250171309811
C 30.77032916084025 -4.142800470668539 266.64125615435654
C 30.2140233847183 -7.91452075152693 266.6760204950214
C 28.928984868110362 -8.807357612701733 263.2247370334336
C 29.7820922026011 -12.510619580656076 262.96910808475246
C 28.28016678743911 -12.644224415664095 259.483973238282
C 25.951281972234685 -9.632967781777493 259.8488581238488
C 26.25062750027515 -6.384429044551489 261.8304644016167
C 25.560559154934804 -6.47101334900063 265.56085982741286
C 26.058871193197138 -4.168032999655298 268.52328389396945
C 27.858662722430125 -5.3369606984188085 271.6356478974357
C 25.251463966652555 -7.289927101462537 273.54400137127107
C 25.121034299745865 -5.082042781597492 276.63677502550405
C 24.26186089341801 -2.08142643634924 274.44455453191773
C 21.320909732802743 -3.563685052685364 272.523644772063
C 18.669867250746904 -2.9463859901107847 275.24668441122395
C 19.66079914043409 0.7261311262378423 275.2734859304088
C 19.765869756735967 0.8875309280619864 271.4836865972703
C 16.29445588078366 -0.6340333479305416 271.17496674411706
C 14.804700114628282 1.9573179991850127 273.5562026756809
C 17.0155702535343 4.888282251861105 272.58666030321496
C 14.02935426463878 7.164076555660465 271.90583330743925
C 13.2636549977444 7.111492961228196 275.6564006566089
C 16.634891944135344 8.570849757860504 276.6739163815783
C 15.893047278734684 12.229954186052886 275.9316606894354
C 18.29353932224447 12.55656671897933 272.9832524245345
C 16.311953227411173 15.135442283316825 270.9918828503831
C 18.042377668331323 18.499812952723268 271.1363697187522
C 20.872757922314033 17.13264413149558 273.2650408226431
C 24.566533978154123 17.1537767068495 272.350630804248
C 25.882006005429435 13.643023558157767 271.646143263475
C 28.7751394753767 11.87989371536804 269.947331521732
C 29.682213127724115 8.252858358070895 269.3580942996645
C 32.807236262338904 6.124577973966703 269.57072968985295
C 33.543941834009466 2.4413688042023347 269.1829318647968
C 36.197129574887946 -0.22400100847889629 268.68935914239455
C 36.24330083920643 -2.4142288097331512 265.6009111436127
C 38.54794646209636 -3.9951268599449 263.04229811574976
C 38.82694536150007 -3.135061138455719 259.3606551745344
C 39.06734587769615 -6.752165367146638 258.15678227798924
C 35.30175050284262 -7.0226771834576756 258.68454729979254
C 32.93154871927779 -5.803236388822672 256.0098715540255
C 31.36194013691194 -3.0580491306951516 258.14398556052606
C 34.15998571967879 -1.416879539688393 260.1168297324113
C 32.61646284042599 -0.09787715167185261 263.3425849286063
C 29.126363331987257 -0.6123237331936507 261.9482542521494
C 27.868188850562813 -0.17203084134579827 265.5112284991957
C 28.746973584214718 3.530688928193184 265.69220408996114
C 27.132896853095136 3.994424168950885 262.2731758934721
C 23.898584592072663 2.45168845690319 263.54415775381
C 23.95028205786456 4.493983385504642 266.757511527565
C 24.668823696214837 7.780656312198279 264.9692855870809
C 21.923311365678014 7.195922716025445 262.3891605043095
C 19.385837529338247 6.567523289814066 265.1477280343463
C 20.642135551167232 9.603842410754474 267.06424977937814
C 20.13066405900569 11.680075597706605 263.9143866269186
C 16.634399926301942 10.255672249911282 263.47685167029744
C 15.885296340848274 11.246215187645502 267.087978436014
C 16.87118031670032 14.882073532994578 266.58632025954216
C 19.991782357555547 14.75019812945044 268.7301934149647
C 22.607159985112645 17.444471872042467 268.10804382091357
C 25.611752158932404 15.385979481307334 267.0081009033123
C 28.61668722691343 17.53615483851717 267.8753391910536
C 31.09451891603374 15.79411403349682 265.5594098413509
C 31.793716681826137 12.615492521329756 263.6290890446824
C 32.195273163915346 9.356885890239589 265.47241439922976
C 35.46770074755817 7.929266589636375 266.73435367706463
C 36.21839302339896 4.616192154852755 264.9945163555451
C 39.17967257957968 2.746405271379743 266.4859079729727
C 40.85334239110869 0.06211646542694578 264.3763055647076
C 42.645365192533426 -2.729626971427307 266.1892872882719
C 44.086640126203896 -2.0850697011914447 269.6279785684765
C 42.93737084854451 1.2451825058545172 271.11871087326506
C 46.11635980680601 1.5782622090639546 273.17954341260383
C 48.074657699754816 1.8058192007497784 269.90173885061307
C 45.7920453254875 4.656519056337416 268.7216817599639
C 45.68632440312147 6.780837982546252 271.8861440047502
C 46.59505620761365 10.041823853432934 270.1204143219948
C 43.33816861673342 9.86310389154427 268.1559948137119
C 41.1875795178231 9.059438437795116 271.199317591693
C 42.61856167254785 12.047303981907 273.064926674147
C 42.386179679432736 14.192803655501143 269.9370460124933
C 38.739442191178796 13.236448461819043 269.45392341482096
C 37.94074833083019 13.930718710764253 273.111260728719
C 39.53054960423465 17.357666214074708 272.6701102186184
C 37.21447356797095 18.165430845386677 269.7658079136062
C 34.13760902037455 16.887305860041522 271.61856802423034
C 35.2062503062113 18.992015653525453 274.6153850269059
C 34.07975580009747 22.17655437026058 272.8723305172654
C 30.43146020256801 21.093543281580075 272.82807913556684
C 29.83573559636244 23.397785308786187 275.82056449886903
C 31.678844725407775 26.756879338248524 275.6929547297862
C 34.73307697151972 27.211845734087895 277.90388606780726
C 33.19190991784824 30.178314852417955 279.7336324569656
C 30.166234629743002 28.149457851453295 280.83011758432724
C 32.2781682444556 25.27742744117791 282.14722476108534
C 34.7559494021451 27.669572935864068 283.7714235801955
C 31.97121385057966 29.601921549922714 285.4924665898547
C 30.611452806196695 26.311061535791886 286.8541196986433
C 33.889917205497134 25.026634484487417 288.28255373143077
C 34.56587356514241 28.452463190199353 289.7822002699811
C 31.119384977461582 28.33567913571055 291.37970469829065
C 31.6168847524801 24.71497475679588 292.4633378265201
C 35.05877859606549 25.472903218767353 293.9031166473955
C 33.80496814010116 28.412851914931025 295.9680023587148
C 30.972774671458417 26.46358973327057 297.5933316067214
C 33.462753038105774 23.780546407024012 298.62083793316407
C 35.78055771931357 26.34777590054849 300.2235373415451
C 32.750722026138185 27.75694822156318 302.0414625289369
C 31.37850209650549 24.433574329073064 303.3114245300042
C 34.819905338215236 23.41174487590851 304.5728416298968
C 35.14359883768974 26.76887211651265 306.3298106002529
C 31.766062406693713 26.339934560700613 308.04063646609
C 32.597466402135545 22.779359027399806 309.103076927737
C 35.916888517576496 23.680891632359508 310.7233951419496
C 35.45826262787672 27.193104709909996 312.1032479392508
C 31.703936786925613 26.94911254173885 312.6530319896623
C 31.83660610211641 24.93471430021944 315.8856375458688
C 34.35882971788972 27.327028397260232 317.44432818414384
C 32.08314768753838 30.242039918964835 316.5409910684481
C 29.18742155212865 28.456752151585146 318.2428099896753
C 31.367183663324028 28.150970030868034 321.3486597924269
C 32.03310819660271 31.89563027743664 321.26809923457034
C 28.289795496538865 32.48726878379581 320.9223789487728
C 27.74087082137302 30.39847735524815 324.055816872919
C 30.3065487051179 32.60343105858699 325.80898646016516
C 28.860095617163765 36.04703690932971 325.07280148969204
C 25.124071063171236 35.59727383194364 325.64391947718957
C 25.133527534427614 33.17451189257174 328.5678186589649
C 27.75078068852099 31.327963847159328 330.58916835109983
C 29.817710385217268 28.337903464203354 329.48518341531803
C 29.374737556816353 24.69721487539323 330.4553804480618
C 31.974387600824674 22.252141577547217 331.70695005318606
C 31.248175501548367 20.265883746218694 328.54021147506916
C 31.657031226915368 23.16941692664648 326.10967060395706
C 35.05823653612897 24.004169928039918 327.6262533606656
C 36.13430787757552 20.418808846281312 326.82027356502493
C 34.95843368078694 20.142631658153164 323.20557953825806
C 36.62170876624644 23.52728095561383 322.65317038317795
C 40.02842280960005 21.825277600971962 322.7894709136156
C 38.998566268792345 19.71169387368013 319.7863801058837
C 36.94081557841269 22.357114776678024 317.98268288351545
C 39.9677835799837 24.663269798575733 317.98056015238365
C 41.938673676948206 21.88461939568659 316.2743149791039
C 39.252919077268004 21.830080400292207 313.58415388734267
C 40.20693690459232 25.454570080905775 312.92790223799943
C 43.74570174251357 24.33884499210055 312.0500596863644
C 42.861409638318655 21.583758218699412 309.5872327060612
C 40.82074876708015 24.107796104976412 307.6113436344504
C 44.163238393370094 25.718643241570568 306.7699307428279
C 45.54143838710483 22.280967483271297 305.82062127619474
C 42.82932902243001 21.089602983316755 303.43568500780464
C 42.51048306252503 24.413985178317112 301.5996990739439
C 45.902736476946544 23.916501106046276 299.8851954934045
C 44.63694298335855 20.400966632795125 299.1401414415386
C 41.448761762521706 21.83938912683066 297.62358260314306
C 43.41644161802137 24.257673117030812 295.44520225282685
C 45.49307841818181 21.376856310950807 294.0828586052753
C 42.53427966594451 19.186264951540636 293.12921141577067
C 40.4460153417155 21.836359462845326 291.33737832956115
C 42.86033449638076 24.448228123841577 289.9548123107802
C 44.21327099832782 22.659578018614873 286.88804447619674
C 46.47222104221232 25.631974310031637 286.1080763940799
C 48.12726899321197 25.506833724749114 289.53779577005315
C 49.133019542079424 21.880213938316935 288.9738350706185
C 50.94569532846838 22.843046699624185 285.7716985993333
C 52.6629609417977 25.822091876291708 287.410414241264
C 53.775024160202676 23.372519518184053 290.10893421413357
C 55.191943620412026 20.92518855957032 287.55660511003623
C 56.8955944627593 23.90236353737185 285.87811395949666
C 59.24754824020081 23.894585705000384 288.87648777252184
C 59.387854976805926 20.080759333116948 288.6153666108295
439
Mode 7 - Frame 8
C 49.1535275545923 35.97232144881399 337.399472131116
C 50.58002686269086 33.78544181511767 338.73404884112165
C 50.42375022295413 30.550906031481784 336.7771311023153
C 50.196629754534534 32.932558327366856 333.81708743111096
C 47.45666754085998 33.85938416291541 331.3639265125035
C 48.979242574405504 32.131409725300564 328.3416482680173
C 47.86783447841896 31.31988393864918 324.81065439503215
C 46.956157238842756 27.64499233926777 324.3234811516787
C 46.659841092028664 27.13009575527933 328.1034529214395
C 43.31050127244542 25.3396738642712 328.06955815018847
C 41.52900395164688 23.28037509225787 330.7382041476148
C 43.10835471609303 20.038282667863275 329.4146290522832
C 40.93500429495592 17.374492284603722 331.0135571196847
C 43.21000450599131 14.326307143114738 330.70249287154854
C 41.83468673327072 10.816643624319143 330.22899449188344
C 45.33399050887508 9.387576996091948 329.65990451164436
C 48.89428236345013 10.557896621044287 330.320567752425
C 51.70379618239732 10.977724322927571 329.31638205508773
C 51.27387080903185 9.210978809560979 325.97281461502536
C 48.52952867509185 11.712380235790334 325.1912829746638
C 50.76321096644641 14.584938719271426 326.29566046418773
C 53.69715020640811 13.183939501748528 324.31486926566
C 51.85390949272662 11.794698042815586 321.2852968687939
C 49.35913492444381 14.655108379239214 320.92282800544984
C 52.23179022720057 17.126354946508535 321.23376907145274
C 54.302844927238574 15.63451180825462 318.4056572873285
C 51.13920749149501 14.989414787545632 316.38839994549653
C 49.80449132118025 18.536869556134082 316.7347312223605
C 53.21571650169504 20.107990450840987 316.1192029208603
C 53.75678017567485 18.00122187755403 312.9891597057226
C 50.285051313287774 18.89098088031705 311.7087971932161
C 51.011643293055045 22.579710428320542 312.24381145441225
C 54.4030863271259 22.624314753032007 310.5255143666927
C 52.94208716040656 20.66567753346105 307.60370158827345
C 50.34427369518363 23.414525700566667 307.1450231977851
C 52.90278906135925 26.230506405712944 307.2420924273081
C 54.96495701323549 24.525108407121852 304.5400604434565
C 52.058948240604145 23.516067237790452 302.30683495499187
C 50.54708985627103 27.009262283354257 302.4714696323169
C 54.03858042654476 28.400125954233715 301.9147875529984
C 54.12415443376733 26.13167288275163 298.8562158859793
C 50.92090975396275 27.701579687824935 297.5076994535968
C 52.35241889436556 31.17733124690447 298.1060680645311
C 55.4443674930439 30.136162711839233 296.1340639955061
C 53.93948428579142 28.859845468314568 292.8724181255816
C 51.745656606310554 31.96661087238133 292.6058930382171
C 54.46661691370394 34.57710700595795 293.12064197931363
C 56.83795567290951 32.39260243709172 291.08330638818853
C 54.78284317503557 32.27227086998822 287.87359149227683
C 53.54861784658537 35.34691331243719 286.0132048841128
C 50.67053715742193 33.52907476472489 284.29920725048163
C 48.96129475637561 33.41951522200344 287.7272978207918
C 49.93796749489432 36.63787412867307 289.5372188692349
C 48.23328168221709 38.5239474849121 286.68817386830875
C 44.96859862250434 36.59106311047923 287.14855853015035
C 42.40964189277237 38.15131565943115 289.5381053058714
C 41.29704988797504 34.65202717105068 290.57855098118995
C 44.72226637489508 33.88909041263646 292.0831669110797
C 44.68433670426995 37.104573137248295 294.0857805086905
C 41.86383262082583 35.22515546492519 295.8477568217083
C 43.7330196951879 31.948951592214076 296.4261094990148
C 46.94421002304523 33.709558431132734 297.4282441092678
C 44.952483167884566 35.826085516179894 299.87754637822576
C 43.41964899329269 32.69466574053566 301.4133587998733
C 46.742040638030936 30.85070829052605 301.5182741396552
C 48.540504360081094 33.72649055179416 303.2504743937351
C 45.60328878033405 33.90160696255712 305.6652463338269
C 45.8766945702917 30.155821038347696 306.29373293098587
C 49.63200719216233 30.62747301490453 306.7094990342938
C 49.32510687259447 33.56134998983678 309.1300485567114
C 47.29020056708728 31.324811481921614 311.4284196944754
C 49.285438507009694 28.122903910866388 310.9888815667066
C 52.46668161596025 30.0806320197172 311.7559533367725
C 50.95628023202504 31.488337595703637 314.9555811704428
C 49.844794915102874 27.975049538145875 315.8802482987524
C 53.30120009992857 26.412142720515767 315.60084169108114
C 54.92960572950031 29.44852516315542 317.2165885836497
C 52.61234450956834 29.525725421605074 320.2361626593655
C 52.70372948072083 25.725338889885787 320.4993635590318
C 56.50652076813905 25.516601426241028 320.6332114714193
C 56.68528608030604 28.689326924531848 322.7486267004317
C 54.48951870385691 27.226966219538447 325.52019526331003
C 54.40855986764555 23.417829225523008 325.2849322657677
C 58.210243129048266 23.222564727902963 324.8749202414339
C 59.690251679134605 26.312612503264802 326.5475208470849
C 56.77755201823701 27.00076855025105 328.93883236937023
C 57.36464960156061 30.73871102221603 328.55157709379137
C 54.839217123780756 33.25314404877391 329.86064068117446
C 52.66028077099158 35.62754592811311 327.85707587914203
C 52.13941387037127 39.23469117189581 328.89880183350493
C 48.970660063683574 41.1016244706407 327.90811148091717
C 50.23982035055992 42.38736591285796 324.5563813858998
C 52.11164987544688 39.23005381085356 323.52957969020974
C 48.93325111690004 37.249802744343064 324.2230451223751
C 46.5701027682724 39.491309409730796 322.2467410623639
C 49.01469104932447 39.647199169629154 319.33219138283533
C 48.91398771388139 35.85240115845004 319.0415737503986
C 45.12632468358183 35.77494651245309 319.3894355457591
C 44.725257916200135 38.75012120580774 317.0611612009377
C 46.82161078540689 37.00065946728775 314.43305341716916
C 44.48162490475855 34.00922036132151 314.5188074858762
C 41.52146715985931 36.39496638205177 314.5586782549991
C 42.99220231835613 38.22287705971193 311.55457898225666
C 43.54467856851216 34.93519501248206 309.7089769970714
C 39.84332222441268 34.07124220315164 309.8654464121143
C 38.75048075995256 37.65326150453062 309.2041053573168
C 40.73688661384129 37.858567888348894 305.96721263027416
C 39.43282271045327 34.40069050963372 305.04113178191204
C 35.83219044979546 35.603641677342914 305.33217067076623
C 36.837366716751106 38.90401662850211 303.73824463687373
C 38.285305562421186 36.98857181178428 300.78764553320354
C 35.108258945903984 34.94017494597328 300.3111139193254
C 33.2428420447805 38.2556993166846 300.3561334154359
C 35.346205138562986 39.74066242827392 297.5507679415152
C 34.91786274127042 36.52831723131686 295.5664084636814
C 31.136219710996965 36.87427826842382 295.8124058968255
C 31.446375232232562 40.39056333492701 294.3739546980354
C 33.550659995861324 39.128000905815746 291.46811416756566
C 30.91429917615905 36.502616957004186 290.6934361549579
C 28.147881002802 39.097199743947456 290.973403176691
C 29.94428585973928 41.17819151521984 288.3342909984085
C 30.405418161336655 38.09764616800226 286.1378899190034
C 26.67426456943294 37.35844434424715 286.388065312996
C 25.33845681741512 40.89312537875712 285.90162492321844
C 28.009168713660223 42.16104931127285 283.45453465413794
C 29.147559221364425 39.06688152836079 281.53268040786253
C 30.15837204437913 41.08580269840361 278.46892258113195
C 32.4284150177137 43.643080037695974 280.1636544840312
C 33.4744875131734 41.50699633668789 283.155757301911
C 37.058227093407474 41.089750707792376 281.9322380785146
C 37.61887964516756 44.85630622371989 281.7413726266844
C 35.889380890246066 45.626608667344115 285.0662696579262
C 37.67111478711479 43.163370987320434 287.3753915672596
C 41.34424208604169 43.749183997317495 286.5620653381533
C 44.65983533980401 43.06791089906423 288.2674005313106
C 44.979234386046585 46.61930699765534 289.68450126841
C 41.335747126780895 46.545051057589134 290.7939664881398
C 41.73991638290265 43.19720892346809 292.5549059920401
C 44.914246172271326 44.24491929754136 294.38847476856006
C 43.23689405311886 47.36734507346334 295.7762963212162
C 40.18925947868542 45.41485143346085 296.9487581330544
C 42.29172399231024 42.796978835121855 298.73696173482057
C 44.738350437537946 45.296524783044646 300.24166609877875
C 41.8118384101821 47.274311130162346 301.65253347064066
C 40.13612749131459 44.11929926752776 302.91651308093435
C 43.23295010103256 42.97980831137656 304.80978916058535
C 43.71107468200049 46.35391421341567 306.49451011336987
C 40.09110397473342 46.14692712500505 307.63437045291226
C 40.74429469262714 42.56724281270766 308.75103416856024
C 43.97356193000835 43.49141198519399 310.5542285031778
C 42.3496712985732 46.48417817891839 312.24431469391726
C 39.86337594084496 44.25914091643115 314.06611324181847
C 42.614552018783606 42.06850340125253 315.50741281752306
C 44.57691278967508 45.10286951785515 316.6735770421001
C 41.47895026799652 46.786197969254005 318.1958099294677
C 41.442504061689974 44.308626239978665 321.10976028909886
C 45.2230002304649 44.483626652087665 321.3276537504251
C 44.98904567119724 48.25975990066578 321.2857376508355
C 41.943344680196844 49.278992085769374 323.3450515832584
C 39.10154588790296 46.82767452905106 324.02288968167005
C 40.14377853188984 44.82660820836134 327.09465940208366
C 39.30963902659933 43.43592495522773 330.4899463137395
C 42.308840680133656 45.20395278638928 332.0164904525016
C 42.0060720397516 48.54518779683957 330.2362066189194
C 38.196860835406575 48.782436462825075 330.38662608463443
C 37.53815131778471 46.83849274927969 333.62266354057886
C 34.79771567745698 45.15381129199863 331.59206764518
C 33.30316469316531 41.679547503788505 331.8605504433302
C 35.89397383737048 39.12328338164992 330.82638654486294
C 35.387054691760284 36.21313275396782 328.440350339994
C 35.16199577822636 32.77071682560248 330.0335001262035
C 37.24723297910818 31.342695890571225 327.160128130057
C 39.969593057089234 33.84968824333385 326.3080839055838
C 41.97794500624074 35.87324454144445 328.84579146661014
C 42.11283432467513 39.66891147874095 328.50961285556394
C 39.22562997317527 39.63454522996381 325.9861535783331
C 36.24922942798916 41.97310869627266 326.3049301861107
C 32.82764352307852 40.36359436406121 325.9985638645181
C 31.34534208332446 43.281645887936335 324.0652360736109
C 34.20812275032836 43.1432232980576 321.5706609655197
C 33.23681559163145 39.56608592091359 320.7015276814926
C 29.638998503685535 40.59530237446222 320.0287079692285
C 30.984017855955805 43.10423260092432 317.5038430430082
C 33.39108418057521 40.52286416142303 316.0711345137271
C 30.85025057850634 37.683096224941536 315.9974996197555
C 28.140163990059797 39.87853059146964 314.50656823931695
C 30.426738105240688 41.17362656644476 311.75476322577623
C 31.535806806613724 37.7361407712567 310.56055071409344
C 28.076687737919432 36.216858271511825 311.07976512439564
C 26.463237927757223 38.841312676557614 308.83473886485115
C 29.19568432551211 38.4406568308974 306.22539395751454
C 28.912168490315764 34.64302585174738 306.2816681089665
C 25.111118167517606 34.770018012107386 306.08725705418726
C 25.458123590771844 36.88865207184346 302.9504793674543
C 28.234991451654636 34.717966959549706 301.49198822491013
C 26.107241829971297 31.599608610432337 301.9674812929831
C 23.188916224101593 33.24046290713373 300.1616666413731
C 25.464415685603974 34.65263220174688 297.46047162147016
C 27.30141803291616 31.393365115536596 296.7635160495473
C 23.958506709005594 29.618224746697337 296.3159594633677
C 22.765249539851602 32.30912773082752 293.89618055954503
C 26.111279155071085 32.19822432667993 292.06231746855883
C 25.922494230705905 28.42011061521479 291.665313693877
C 22.251293797584562 28.607702556221394 290.63769339728856
C 23.00522842074902 31.250312411995683 288.00610193762554
C 25.914987007749666 29.117291157739103 286.794111843147
C 23.492442831457044 26.280176704611588 286.00713312136105
C 20.901926994077453 28.507550905355885 284.3091135634607
C 22.847869165613645 28.639850659655966 281.0366198682042
C 24.460166577081015 25.1985585725673 281.1484709341709
C 25.22283989051235 22.366212946079205 283.47587029466257
C 28.64397418405659 20.841293300058098 282.90129854834726
C 27.87202974658369 17.117908015495132 283.17972585539434
C 28.989320431080248 14.539984436621037 280.6318076949925
C 27.5529689535127 11.030588759273838 280.4012450139264
C 29.475108453346795 8.136669768729474 278.8702982250265
C 27.74232679705345 4.810134179324777 278.192987007978
C 29.91650314992546 2.045865446247356 276.76549781252425
C 29.38740148943588 -1.5275641615610005 275.6722267824904
C 32.52431769091181 -3.676280148189349 275.7281353030452
C 33.30644532326359 -7.380421762972172 276.1467827966569
C 37.110799521682644 -7.479428108293245 275.9098838400236
C 37.57544173863576 -3.9657713634303424 277.310732856672
C 38.78584477180821 -2.0568954644422783 274.2440629172611
C 35.77789756063935 0.25847700949700547 274.2677196196842
C 35.96497251414364 0.47758188302628385 278.0736287803248
C 39.58592279218288 1.6194634468150169 277.83571606950596
C 38.55681265218732 4.062172722605586 275.1013251474661
C 35.78353789028631 5.514599715568222 277.26318337488283
C 38.029690169192776 5.760744491302136 280.3336797709405
C 40.59010364017379 7.653509200423344 278.24160903410547
C 37.9390085964421 10.091792373729984 276.99705650578375
C 36.67184591658592 10.341226339032437 280.5783534624392
C 39.90415616880038 11.792428725170204 281.9788719241891
C 40.38420636049513 14.340738794749594 279.1767103855538
C 36.89870475133897 15.727072349489204 279.83446812263225
C 37.439729525817995 15.536294294815459 283.59842738033586
C 40.49524869565142 17.784085357625 283.24971423376394
C 38.62976161073029 20.162284454701503 280.9315837852816
C 35.95804785861008 20.990427797478226 283.518282693129
C 33.18324064124853 18.436479087695492 282.9769565616881
C 31.526906486198016 16.485990759821366 285.7811304638733
C 32.02837970725166 13.145372032027735 284.04146656690926
C 29.734795047148882 10.175685384476282 284.7514334883977
C 30.893993807597266 6.922579985431063 283.1346058709743
C 28.56814571686928 3.9097481782179 283.1498300291555
C 28.51743350610401 0.45673181146024855 281.589708538314
C 25.56549910365246 -0.08993463961093019 279.25137492612356
C 24.59054061997281 -3.256660292617977 281.1440899819407
C 23.785418093922328 -1.2141100271159375 284.2778155792727
C 21.55768298015856 1.5784895071003526 282.9034805831787
C 17.865250141450687 2.003990771630086 282.15482110065517
C 17.04525386976817 3.819941187718261 278.92373779407023
C 14.107935352637115 5.8468695345603905 280.25055021890273
C 15.255159205085654 9.405874791358105 280.8906935532573
C 18.8926687280409 8.298203376973698 280.89435097777493
C 20.2948197172445 11.44939723312294 279.276939873325
C 18.412300979924993 13.856283006796303 281.5533305195892
C 20.60568633419814 16.198801374057524 283.56864053702157
C 23.52647063562679 15.836542471916195 281.1445762601024
C 24.280892746120113 18.268629474839308 278.3271899966109
C 26.950754705597987 16.036069699962653 276.78469733846845
C 26.3849815827748 12.3242860010002 276.1466127651994
C 28.95578835167989 9.989390915471363 274.5934995812368
C 27.78129218412493 6.5470444408945845 273.5155126590785
C 30.452547408711776 3.939057413536156 272.8076785468646
C 29.883108337896115 0.46935045185298807 271.4167885605043
C 31.9305806250796 -2.2432507932977916 269.7250171309811
C 30.77032916084025 -4.142800470668539 266.64125615435654
C 30.2140233847183 -7.91452075152693 266.6760204950214
C 28.928984868110362 -8.807357612701733 263.2247370334336
C 29.7820922026011 -12.510619580656076 262.96910808475246
C 28.28016678743911 -12.644224415664095 259.483973238282
C 25.951281972234685 -9.632967781777493 259.8488581238488
C 26.25062750027515 -6.384429044551489 261.8304644016167
C 25.560559154934804 -6.47101334900063 265.56085982741286
C 26.058871193197138 -4.168032999655298 268.52328389396945
C 27.858662722430125 -5.3369606984188085 271.6356478974357
C 25.251463966652555 -7.289927101462537 273.54400137127107
C 25.121034299745865 -5.082042781597492 276.63677502550405
C 24.26186089341801 -2.08142643634924 274.44455453191773
C 21.320909732802743 -3.563685052685364 272.523644772063
C 18.669867250746904 -2.9463859901107847 275.24668441122395
C 19.66079914043409 0.7261311262378423 275.2734859304088
C 19.765869756735967 0.8875309280619864 271.4836865972703
C 16.29445588078366 -0.6340333479305416 271.17496674411706
C 14.804700114628282 1.9573179991850127 273.5562026756809
C 17.0155702535343 4.888282251861105 272.58666030321496
C 14.02935426463878 7.164076555660465 271.90583330743925
C 13.2636549977444 7.111492961228196 275.6564006566089
C 16.634891944135344 8.570849757860504 276.6739163815783
C 15.893047278734684 12.229954186052886 275.9316606894354
C 18.29353932224447 12.55656671897933 272.9832524245345
C 16.311953227411173 15.135442283316825 270.9918828503831
C 18.042377668331323 18.499812952723268 271.1363697187522
C 20.872757922314033 17.13264413149558 273.2650408226431
C 24.566533978154123 17.1537767068495 272.350630804248
C 25.882006005429435 13.643023558157767 271.646143263475
C 28.7751394753767 11.87989371536804 269.947331521732
C 29.682213127724115 8.252858358070895 269.3580942996645
C 32.807236262338904 6.124577973966703 269.57072968985295
C 33.543941834009466 2.4413688042023347 269.1829318647968
C 36.197129574887946 -0.22400100847889629 268.68935914239455
C 36.24330083920643 -2.4142288097331512 265.6009111436127
C 38.54794646209636 -3.9951268599449 263.04229811574976
C 38.82694536150007 -3.135061138455719 259.3606551745344
C 39.06734587769615 -6.752165367146638 258.15678227798924
C 35.30175050284262 -7.0226771834576756 258.68454729979254
C 32.93154871927779 -5.803236388822672 256.0098715540255
C 31.36194013691194 -3.0580491306951516 258.14398556052606
C 34.15998571967879 -1.416879539688393 260.1168297324113
C 32.61646284042599 -0.09787715167185262 263.3425849286063
C 29.126363331987257 -0.6123237331936507 261.9482542521494
C 27.868188850562813 -0.17203084134579827 265.5112284991957
C 28.746973584214718 3.530688928193184 265.69220408996114
C 27.132896853095136 3.994424168950885 262.2731758934721
C 23.898584592072663 2.45168845690319 263.54415775381
C 23.95028205786456 4.493983385504642 266.757511527565
C 24.668823696214837 7.780656312198279 264.9692855870809
C 21.923311365678014 7.195922716025445 262.3891605043095
C 19.385837529338247 6.567523289814066 265.1477280343463
C 20.642135551167232 9.603842410754474 267.06424977937814
C 20.13066405900569 11.680075597706605 263.9143866269186
C 16.634399926301942 10.255672249911282 263.47685167029744
C 15.885296340848274 11.246215187645502 267.087978436014
C 16.87118031670032 14.882073532994578 266.58632025954216
C 19.991782357555547 14.75019812945044 268.7301934149647
C 22.607159985112645 17.444471872042467 268.10804382091357
C 25.611752158932404 15.385979481307334 267.0081009033123
C 28.61668722691343 17.53615483851717 267.8753391910536
C 31.09451891603374 15.79411403349682 265.5594098413509
C 31.793716681826137 12.615492521329756 263.6290890446824
C 32.195273163915346 9.356885890239589 265.47241439922976
C 35.46770074755817 7.929266589636375 266.73435367706463
C 36.21839302339896 4.616192154852755 264.9945163555451
C 39.17967257957968 2.746405271379743 266.4859079729727
C 40.85334239110869 0.06211646542694577 264.3763055647076
C 42.645365192533426 -2.729626971427307 266.1892872882719
C 44.086640126203896 -2.0850697011914447 269.6279785684765
C 42.93737084854451 1.2451825058545172 271.11871087326506
C 46.11635980680601 1.5782622090639546 273.17954341260383
C 48.074657699754816 1.8058192007497784 269.90173885061307
C 45.7920453254875 4.656519056337416 268.7216817599639
C 45.68632440312147 6.780837982546252 271.8861440047502
C 46.59505620761365 10.041823853432934 270.1204143219948
C 43.33816861673342 9.86310389154427 268.1559948137119
C 41.1875795178231 9.059438437795116 271.199317591693
C 42.61856167254785 12.047303981907 273.064926674147
C 42.386179679432736 14.192803655501143 269.9370460124933
C 38.739442191178796 13.236448461819043 269.45392341482096
C 37.94074833083019 13.930718710764253 273.111260728719
C 39.53054960423465 17.357666214074708 272.6701102186184
C 37.21447356797095 18.165430845386677 269.7658079136062
C 34.13760902037455 16.887305860041522 271.61856802423034
C 35.2062503062113 18.992015653525453 274.6153850269059
C 34.07975580009747 22.17655437026058 272.8723305172654
C 30.43146020256801 21.093543281580075 272.82807913556684
C 29.83573559636244 23.397785308786187 275.82056449886903
C 31.678844725407775 26.756879338248524 275.6929547297862
C 34.73307697151972 27.211845734087895 277.90388606780726
C 33.19190991784824 30.178314852417955 279.7336324569656
C 30.166234629743002 28.149457851453295 280.83011758432724
C 32.2781682444556 25.27742744117791 282.14722476108534
C 34.7559494021451 27.669572935864068 283.7714235801955
C 31.97121385057966 29.601921549922714 285.4924665898547
C 30.611452806196695 26.311061535791886 286.8541196986433
C 33.889917205497134 25.026634484487417 288.28255373143077
C 34.56587356514241 28.452463190199353 289.7822002699811
C 31.119384977461582 28.33567913571055 291.37970469829065
C 31.6168847524801 24.71497475679588 292.4633378265201
C 35.05877859606549 25.472903218767353 293.9031166473955
C 33.80496814010116 28.412851914931025 295.9680023587148
C 30.972774671458417 26.46358973327057 297.5933316067214
C 33.462753038105774 23.780546407024012 298.62083793316407
C 35.78055771931357 26.34777590054849 300.2235373415451
C 32.750722026138185 27.75694822156318 302.0414625289369
C 31.37850209650549 24.433574329073064 303.3114245300042
C 34.819905338215236 23.41174487590851 304.5728416298968
C 35.14359883768974 26.76887211651265 306.3298106002529
C 31.766062406693713 26.339934560700613 308.04063646609
C 32.597466402135545 22.779359027399806 309.103076927737
C 35.916888517576496 23.680891632359508 310.7233951419496
C 35.45826262787672 27.193104709909996 312.1032479392508
C 31.703936786925613 26.94911254173885 312.6530319896623
C 31.83660610211641 24.93471430021944 315.8856375458688
C 34.35882971788972 27.327028397260232 317.44432818414384
C 32.08314768753838 30.242039918964835 316.5409910684481
C 29.18742155212865 28.456752151585146 318.2428099896753
C 31.367183663324028 28.150970030868034 321.3486597924269
C 32.03310819660271 31.89563027743664 321.26809923457034
C 28.289795496538865 32.48726878379581 320.9223789487728
C 27.74087082137302 30.39847735524815 324.055816872919
C 30.3065487051179 32.60343105858699 325.80898646016516
C 28.860095617163765 36.04703690932971 325.07280148969204
C 25.124071063171236 35.59727383194364 325.64391947718957
C 25.133527534427614 33.17451189257174 328.5678186589649
C 27.75078068852099 31.327963847159328 330.58916835109983
C 29.817710385217268 28.337903464203354 329.48518341531803
C 29.374737556816353 24.69721487539323 330.4553804480618
C 31.974387600824674 22.252141577547217 331.70695005318606
C 31.248175501548367 20.265883746218694 328.54021147506916
C 31.657031226915368 23.16941692664648 326.10967060395706
C 35.05823653612897 24.004169928039918 327.6262533606656
C 36.13430787757552 20.418808846281312 326.82027356502493
C 34.95843368078694 20.142631658153164 323.20557953825806
C 36.62170876624644 23.52728095561383 322.65317038317795
C 40.02842280960005 21.825277600971962 322.7894709136156
C 38.998566268792345 19.71169387368013 319.7863801058837
C 36.94081557841269 22.357114776678024 317.98268288351545
C 39.9677835799837 24.663269798575733 317.98056015238365
C 41.938673676948206 21.88461939568659 316.2743149791039
C 39.252919077268004 21.830080400292207 313.58415388734267
C 40.20693690459232 25.454570080905775 312.92790223799943
C 43.74570174251357 24.33884499210055 312.0500596863644
C 42.861409638318655 21.583758218699412 309.5872327060612
C 40.82074876708015 24.107796104976412 307.6113436344504
C 44.163238393370094 25.718643241570568 306.7699307428279
C 45.54143838710483 22.280967483271297 305.82062127619474
C 42.82932902243001 21.089602983316755 303.43568500780464
C 42.51048306252503 24.413985178317112 301.5996990739439
C 45.902736476946544 23.916501106046276 299.8851954934045
C 44.63694298335855 20.400966632795125 299.1401414415386
C 41.448761762521706 21.83938912683066 297.62358260314306
C 43.41644161802137 24.257673117030812 295.44520225282685
C 45.49307841818181 21.376856310950807 294.0828586052753
C 42.53427966594451 19.186264951540636 293.12921141577067
C 40.4460153417155 21.836359462845326 291.33737832956115
C 42.86033449638076 24.448228123841577 289.9548123107802
C 44.21327099832782 22.659578018614873 286.88804447619674
C 46.47222104221232 25.631974310031637 286.1080763940799
C 48.12726899321197 25.506833724749114 289.53779577005315
C 49.133019542079424 21.880213938316935 288.9738350706185
C 50.94569532846838 22.843046699624185 285.7716985993333
C 52.6629609417977 25.822091876291708 287.410414241264
C 53.775024160202676 23.372519518184053 290.10893421413357
C 55.191943620412026 20.92518855957032 287.55660511003623
C 56.8955944627593 23.90236353737185 285.87811395949666
C 59.24754824020081 23.894585705000384 288.87648777252184
C 59.387854976805926 20.080759333116948 288.6153666108295
439
Mode 7 - Frame 9
C 49.15603937624001 35.97798902376755 337.3993640871236
C 50.58269168137284 33.7914100630759 338.7342652305229
C 50.426252312925946 30.556460647770553 336.77804317328423
C 50.19883117596463 32.937472568015934 333.8175206579372
C 47.45864878685368 33.86378155780436 331.3644104770436
C 48.98098016468128 32.13519413581116 328.3423629171693
C 47.869283970857886 31.3229483469844 324.81163100519535
C 46.95754892030385 27.64796460037873 324.3252520197814
C 46.661552524212304 27.133850182987924 328.1053561377347
C 43.31218385157695 25.34344673064131 328.07202492986323
C 41.530883085277836 23.28472917877955 330.74125456128166
C 43.11013111003748 20.042378564983302 329.4182290579581
C 40.93692711838116 17.378928658854598 331.0179032507344
C 43.212014729790354 14.330751608937092 330.7074536777295
C 41.83675455006104 10.82094226990265 330.2349822900135
C 45.33604504921381 9.391834848850168 329.6658962423426
C 48.89636785314199 10.562402733449554 330.32591862913915
C 51.705771806138536 10.982019441594655 329.32134770447976
C 51.275537237641316 9.21447611956744 325.97824211225634
C 48.531078942200644 11.715641477551651 325.1963840687414
C 50.76481882374607 14.588481486214445 326.2998709641911
C 53.69858590001887 13.18704518650822 324.3191143448356
C 51.85504977309061 11.797115003712777 321.2900477172431
C 49.36022164756149 14.657419996868615 320.9271622974917
C 52.232892015241816 17.12874319756217 321.237275548021
C 54.30368209583449 15.636281336517794 318.40929976379493
C 51.13985399509901 14.990751508094021 316.39249071702125
C 49.805169124863575 18.53827381071 316.73815194351863
C 53.2163407591108 20.109258307342497 316.12199115935107
C 53.75709571664242 18.001824047619685 312.99234317610905
C 50.28526759464353 18.8913313543272 311.71208391673565
C 51.011921111651404 22.580160131977777 312.246267163477
C 54.403213668611855 22.62438840641122 310.52767712632664
C 52.94195223668296 20.665167169213777 307.6063806230083
C 50.34413061899518 23.41393456254839 307.14733853825277
C 52.90266716599445 26.229916110972365 307.2436617605384
C 54.96460925357511 24.52396734444859 304.5418059937287
C 52.05842604515573 23.514534631227733 302.3089837033788
C 50.546605176336946 27.007764857163 302.4730661846768
C 54.0380743063357 28.398503371883606 301.9158894579151
C 54.123404702695595 26.129501939418446 298.85773611867467
C 50.92008330697552 27.699194293564588 297.5091548472684
C 52.351657605096655 31.17504412030156 298.1068080713595
C 55.443477335863804 30.133533312639138 296.1348041801705
C 53.93837050021517 28.85666177179788 292.87349247145056
C 51.74453528950073 31.96339372403411 292.6065532849383
C 54.46554103645002 34.57395558378978 293.12065762653555
C 56.836733875857156 32.3890797238174 291.08355522634565
C 54.78140777068748 32.26819448540644 287.87400268921135
C 53.5470611757762 35.342502916447884 286.0131522248954
C 50.66885289872079 33.52439508370468 284.29967894542494
C 48.95983961575603 33.4154718628646 287.7278966717736
C 49.93665777156745 36.63412101718027 289.5371655988005
C 48.23178340820244 38.519710414615794 286.68790404063816
C 44.967086496678284 36.58699580598494 287.14884005329236
C 42.40830269502211 38.14771807011965 289.53827552269365
C 41.295823973272235 34.648660714058394 290.5794884062358
C 44.72111840827211 33.885852306079 292.08394630263814
C 44.68336048310996 37.10166357169719 294.0860086255066
C 41.86296584012827 35.22257008724854 295.8485104313416
C 43.73214473844303 31.946418829551728 296.4272847429428
C 46.94341415765677 33.70717396589184 297.4288890124994
C 44.95189388874859 35.82415876757705 299.8779595468608
C 43.419139876387725 32.69301956693398 301.4144357385604
C 46.74151440437159 30.84906025728561 301.5194421879972
C 48.5401326787371 33.72515796837086 303.2509781180349
C 45.6031013400536 33.90075004420873 305.6659348446331
C 45.87653309984144 30.1550858782556 306.29509945193786
C 49.63187576343473 30.62679676990544 306.71048243446677
C 49.325189611346325 33.561159874407345 309.13048348253545
C 47.290454030134335 31.325081949857445 311.4294502669777
C 49.28563786614184 28.123082929616743 310.99037270595994
C 52.46695775966175 30.08095403581105 311.7567857673516
C 50.956836146921766 31.489328051517667 314.95625504728224
C 49.84541574547644 27.976227402651567 315.8817234100556
C 53.301803221780965 26.41327280770622 315.6023345730907
C 54.93036594258812 29.449988174155617 317.2173058412949
C 52.61337836801184 29.52783525232806 320.2370733511399
C 52.7047902188762 25.72750931869822 320.5010521569003
C 56.50759062803576 25.518804085753484 320.63460078265655
C 56.68654101638134 28.69197862907152 322.74934229219065
C 54.49102570195798 27.23020185099811 325.5214104637253
C 54.41006506669153 23.421027139479982 325.28694564681115
C 58.2117184662923 23.225686792078072 324.87662821440875
C 59.69185775709443 26.316082117815604 326.54845958913575
C 56.77936349392954 27.00471209758361 328.93988861079794
C 57.36641310759511 30.74256967420271 328.5518141008147
C 54.84108694076655 33.257246004213314 329.8606126803328
C 52.66197298709472 35.63123697631016 327.85676662926966
C 52.14118767898991 39.238594396235264 328.8978052839654
C 48.97233570287603 41.105312086152416 327.90701398870283
C 50.24122675565554 42.390365551808955 324.5549224591543
C 52.112976321525906 39.23284856616712 323.5285928493982
C 48.934638695439546 37.252739586863484 324.22273721672104
C 46.57132201116466 39.493830765355725 322.2461842168002
C 49.01566605751921 39.64911347609606 319.3313963321135
C 48.914949756411445 35.854262932237695 319.041548674753
C 45.12731570371754 35.776871861250974 319.3897661487077
C 44.72603333039815 38.7515581668839 317.06093563169054
C 46.822152253534654 37.00154844617198 314.433007377784
C 44.482165755802896 34.01012853124353 314.51955888124223
C 41.5220149051127 36.395885652086605 314.5592167743819
C 42.992499409662855 38.223188366382175 311.5546410875508
C 43.544823731006176 34.935142784702286 309.70963357438774
C 39.84348296085377 34.07123161771169 309.86656322652465
C 38.75059086283129 37.65311896113219 309.2046252102789
C 40.736760454964916 37.857800087327966 305.9675529756991
C 39.43261193486453 34.399742530280115 305.0422186423734
C 35.8320073070314 35.602739536993276 305.3332995363966
C 36.83708846067818 38.9028358721964 303.7387146978523
C 38.284811455093276 36.98684233372269 300.78836030188
C 35.10772317114303 34.93833169845641 300.31242008446026
C 33.24232449059916 38.253876856449956 300.35704538531036
C 35.345540601045435 39.73840453225451 297.5513025411669
C 34.916994644164895 36.52572478367266 295.5674832318218
C 31.135379717399992 36.871731228443544 295.81374300594103
C 31.445441032014255 40.38791642657557 294.37491818351634
C 33.54949482611333 39.12498523512852 291.4690269786644
C 30.913018661567857 36.499574361923884 290.6949030560435
C 28.14661876439312 39.09421908787827 290.9749152238836
C 29.942787403146866 41.175080104389934 288.3355020147406
C 30.40365169373839 38.0943837722685 286.1393369884227
C 26.672548519336413 37.35519076917995 286.38998546964007
C 25.3366449555622 40.88979833441534 285.90338950781495
C 28.007107214532674 42.15763818184808 283.45595354553814
C 29.145218426385142 39.06334661745879 281.5341803387226
C 30.155646086745488 41.08205270875634 278.4701496990669
C 32.42599311552885 43.63936163178934 280.164412566312
C 33.47236837617882 41.50354381770815 283.1565545953557
C 37.0559882236107 41.08595928558577 281.93257731172935
C 37.616743370123174 44.85244681800305 281.7413126363117
C 35.8877471659689 45.622998272180816 285.06643269177505
C 37.66971121681403 43.15968357031762 287.3753744538914
C 41.34278924736844 43.745155114286824 286.5614943201815
C 44.65853139228873 43.06402506613329 288.26659633979676
C 44.97826263668392 46.61562237730794 289.6831245118206
C 41.33488408258334 46.54172726143902 290.7929190376041
C 41.73900223660186 43.194096751814214 292.5543419382581
C 44.91349243178676 44.24203830792292 294.3874925133281
C 43.236286816326505 47.364751408983736 295.7748848170041
C 40.1886362710423 45.41249786741077 296.94785090303134
C 42.291167892789794 42.79488192979903 298.7363515400131
C 44.737941778549164 45.29466624596905 300.24045695750544
C 41.81149583404428 47.27276786433265 301.65111160186075
C 40.135815985742646 44.11797504414478 302.91574767526043
C 43.232777462662746 42.97881147872298 304.8090116889059
C 43.71102771324018 46.35326239072307 306.4930455606162
C 40.09109943053864 46.1464932620067 307.633174232782
C 40.744369222742314 42.56701367663453 308.75046451284925
C 43.97379959976174 43.491525093859686 310.55321330612617
C 42.35003530279109 46.48465114442851 312.2428149771329
C 39.86388396800846 44.25996514887903 314.065234196637
C 42.615183464891864 42.06961772496405 315.5067392034384
C 44.57765958275981 45.1042300693055 316.67210956423975
C 41.47982653749436 46.787893804190404 318.19424486371486
C 41.44361835653721 44.31091522460878 321.10867814565216
C 45.22413654515432 44.48595932350518 321.32622662484147
C 44.990179999908605 48.262086748481025 321.28356387682624
C 41.94464075997425 49.281745833966774 323.3429077936944
C 39.10287687873664 46.83057327039645 324.02145224475885
C 40.14536158385615 44.83012171541857 327.0935379630851
C 39.311490404407444 43.44012389570349 330.4891619737131
C 42.310814359110275 45.20845644409946 332.01511416861933
C 42.00790449280713 48.54933154507711 330.2341871679487
C 38.19870251910545 48.786613047964345 330.3848505297903
C 37.54024253480097 46.843322446408784 333.6213233967156
C 34.79965111485186 45.15823372409558 331.59127800238747
C 33.30512421121766 41.684025169494575 331.8605700911139
C 35.89585428713983 39.12755406676818 330.82671928938584
C 35.38875678861068 36.216929269454724 328.44129653402285
C 35.16383156427649 32.774837452744514 330.0351390506327
C 37.248839874348896 31.346249270293665 327.16187072209993
C 39.9711405103958 33.853067138083134 326.3091728584705
C 41.9796956016732 35.87712358087927 328.84632503810235
C 42.11454605262459 39.67271766501707 328.5093675468423
C 39.2271321082732 39.637842965486556 325.986146866223
C 36.25074906883375 41.976469215210955 326.3046710085215
C 32.829145065980654 40.36688995218812 325.99888885932114
C 31.346681981396188 43.284545881035875 324.0650946416657
C 34.20925371031183 43.145617302780266 321.5703261445651
C 33.23787256632682 39.56831111048252 320.7019853720632
C 29.640003779447902 40.597386989576826 320.02924518995695
C 30.984803761938437 43.10579580789495 317.50376249318487
C 33.39173607345811 40.52413753737811 316.071390863623
C 30.85089519900119 37.68435945860729 315.9985266991395
C 28.140681280489662 39.87946890764407 314.5073737957042
C 30.427011780089572 41.173992525671316 311.75512321233424
C 31.535990069285877 37.73626573327289 310.5615318556112
C 28.076919909263417 36.21708298971951 311.08130505753525
C 26.46327123397106 38.84103678230046 308.8358866024721
C 29.195523302807874 38.439885142660316 306.2264256548455
C 28.912030012084863 34.64228174032692 306.2834308061386
C 25.11098188863446 34.76918683371974 306.0892562404183
C 25.45772484607527 36.88722501962187 302.952075494342
C 28.23451107247449 34.7163076212317 301.4937806362779
C 26.1067942128558 31.598052343287375 301.9699077268881
C 23.188351723129433 33.238519664735286 300.1639975650669
C 25.463654536573348 34.65028821717469 297.4624614300813
C 27.3006130764982 31.390945394316347 296.76585355482655
C 23.957697877017008 29.61572375067186 296.318670932522
C 22.764277128194948 32.3062376316743 293.8986201369443
C 26.110218039490167 32.19519889142884 292.0646199479816
C 25.921380010489166 28.41700274010331 291.6679659766598
C 22.25023204205554 28.604437696051885 290.64037279000877
C 23.003994703307296 31.246933488605357 288.00867606557557
C 25.913807546012976 29.11391316326178 286.79672924297677
C 23.49133085763412 26.276803712285144 286.0095747720366
C 20.90079386002475 28.504248968258366 284.3116434785074
C 22.846869673337896 28.63719119383514 281.0391713601026
C 24.459328905691134 25.19608669154797 281.1505481824174
C 25.221710563303407 22.363275417812044 283.4774930409539
C 28.64279528277682 20.83839596473501 282.90277146350195
C 27.87058618816367 17.114940109359186 283.17986895122465
C 28.988126397144068 14.537668762493162 280.6313790516588
C 27.5516591664372 11.028421492540305 280.39948611370085
C 29.473879979056218 8.134848599882263 278.86796883683957
C 27.74104507529663 4.808598647095787 278.189316372715
C 29.915301130298964 2.0446475925331002 276.7613240998676
C 29.386203912860598 -1.528413600964285 275.66684118078786
C 32.52299266233854 -3.6773168195339516 275.72262258503775
C 33.3048524877529 -7.381627064265351 276.1402365697054
C 37.10923491079995 -7.4807642466610424 275.9039887689701
C 37.57380535499198 -3.9675732526853844 277.3060244138759
C 38.78484634565881 -2.057817833916948 274.2401704404055
C 35.77702794176032 0.25771318031799023 274.26401696577415
C 35.96344404745882 0.4756334408104256 278.0700175061277
C 39.5844839081834 1.6173890664343138 277.8331061907191
C 38.55599044901361 4.060985144238533 275.09930051622916
C 35.782421761936405 5.512912722775906 277.2611212349895
C 38.028042927941556 5.758002255950759 280.33207668894136
C 40.588919081040494 7.651258001196277 278.2410579588102
C 37.93817782956422 10.090053256052988 276.9967918074187
C 36.67041039241893 10.338506749421617 280.57794467124774
C 39.90253226592872 11.789132127933085 281.9794456840975
C 40.38319213118502 14.33821533235756 279.1781215966478
C 36.89766873995744 15.724534309154475 279.83571510258435
C 37.43812426929193 15.532741344038717 283.59980725531744
C 40.49370815850944 17.78045412880901 283.2521741918375
C 38.62867940952199 20.15930009636588 280.9341805589754
C 35.956690918204664 20.987043831188636 283.52076151159906
C 33.18187527531674 18.43335510856848 282.9784007185023
C 31.525031266863 16.482232550987725 285.78178033395403
C 32.02652751068437 13.14194679815739 284.04114024210674
C 29.732706174242395 10.172115341204705 284.74975376053044
C 30.891939952703957 6.919407891790315 283.13213192278766
C 28.56595410841625 3.906656143342353 283.1459914354262
C 28.515316729477515 0.4541212446744038 281.58478263435416
C 25.563772803285122 -0.09168568811486204 279.24576432584075
C 24.588331752359196 -3.2589477889843526 281.13731180552554
C 23.78277753329974 -1.2173393734943991 284.27153014835477
C 21.555424185923176 1.5758021205806758 282.8976905459814
C 17.863141378739424 2.0017185254304497 282.1485354284263
C 17.04380051608953 3.818720023738279 278.9178928107242
C 14.10636480528992 5.845389273376043 280.2448445478872
C 15.253666283909359 9.404132071635278 280.88629276179864
C 18.891109833467965 8.296271477288611 280.89022738729994
C 20.293691271704166 11.447893908979232 279.2740579844461
C 18.410932976903503 13.854172807711732 281.55086860557935
C 20.60408296535312 16.19601294785825 283.56725769372554
C 23.525270037031163 15.83433352336377 281.14363327400156
C 24.28024186165134 18.267159705416706 278.32709428325023
C 26.950240968558017 16.034930328977985 276.7843609278415
C 26.384414225314995 12.323399405413458 276.14505631647114
C 28.955360553741755 9.988849373007055 274.59164214560116
C 27.780886071089824 6.546911384218643 273.51238721272097
C 30.45213014113752 3.9390111994905928 272.80419621202657
C 29.882753964621934 0.4697721834106818 271.41212138798187
C 31.930380429783344 -2.242409441255123 269.7198592160482
C 30.770577003723236 -4.1409298847208795 266.6353011065816
C 30.214066067492432 -7.912618685849467 266.66876460273426
C 28.929597396626004 -8.804282647413384 263.21696907219564
C 29.78256892568885 -12.507489461312527 262.9602749916266
C 28.281252117990995 -12.639887832568 259.4748401050042
C 25.952449678255352 -9.628642414813712 259.84029818400506
C 26.25160528586829 -6.380782794967616 261.82301428928713
C 25.56088435556929 -6.4685215920689005 265.5532613186829
C 26.05878941307544 -4.166501889463378 268.5164972426682
C 27.85797818630185 -5.33648166330264 271.62880163263776
C 25.250351069120168 -7.289886582679897 273.5360907428056
C 25.11950313273375 -5.082958712605572 276.62952986141266
C 24.260861762676907 -2.081626323027171 274.43810569082774
C 21.320170696337364 -3.5631306550133774 272.5162304814779
C 18.66869302296589 -2.946543939684887 275.2390061594261
C 19.659802708594707 0.7259068713993732 275.267127497131
C 19.76552581060332 0.8884692295257146 271.47740680348477
C 16.294086318217595 -0.6328081561070489 271.16762579140527
C 14.80405764908005 1.9578722634756192 273.54941957400854
C 17.015239397128745 4.88901289767543 272.5811683449794
C 14.02925137197705 7.1651658297740575 271.90055231208163
C 13.262927094423423 7.111471416457033 275.65096375097454
C 16.634066275523026 8.570331866580553 276.6695058514528
C 15.892520754844721 12.229693959551021 275.9282665446497
C 18.29351575127443 12.557066408222902 272.98035687566795
C 16.312392319583072 15.136646687772476 270.9894405016657
C 18.042973029592446 18.50087004275159 271.1352609403053
C 20.872899616666125 17.132878208649533 273.2639901233329
C 24.5668165743362 17.154048694622848 272.35020989188865
C 25.882224266956015 13.643459576538552 271.64486956301624
C 28.775570427618785 11.880728751688583 269.9460058886855
C 29.682597156206665 8.253869758869117 269.355817528793
C 32.80748816533218 6.1253831049030465 269.56833773978417
C 33.54407549053796 2.442270486458154 269.17952586834656
C 36.19721132144063 -0.22308316363434916 268.68558483347476
C 36.24381214867191 -2.412339503312969 265.59645713761284
C 38.5488228979303 -3.9925427324431557 263.03773978761365
C 38.828521122211875 -3.131299853738044 259.35643087960426
C 39.06894783872682 -6.748006183948234 258.1514161032664
C 35.30324737021572 -7.018495631430512 258.67844841316935
C 32.933578863143325 -5.798068891269979 256.0037584959364
C 31.363734649955973 -3.05350168440065 258.1384793869853
C 34.16151601174598 -1.4131261917082576 260.11233557967313
C 32.617491527243196 -0.09508541362721147 263.3382325893647
C 29.127614891793392 -0.6089006102141177 261.94312967868217
C 27.868836168865 -0.16966943431024467 265.506017641659
C 28.747761425084878 3.532931468248982 265.6883054431811
C 27.13429991466287 3.9978146050178687 262.2691473646184
C 23.899695367355747 2.454848818325802 263.5390811025818
C 23.9509253025604 4.4961256467659005 266.75307498670406
C 24.669924021499558 7.783293620916354 264.9659952456651
C 21.92482742545242 7.199509887185638 262.3852200576331
C 19.38684984045203 6.570384936241306 265.1431509167045
C 20.642960018102894 9.60603453808732 267.0608298885352
C 20.132120999590732 11.683262744016933 263.9115289175624
C 16.635868410753588 10.25918295804547 263.4729684259478
C 15.886201190100385 11.248653251630621 267.0842644705884
C 16.872352465555633 14.884605197564742 266.5839024987441
C 19.992578555948317 14.751893957385489 268.7282619506672
C 22.608201908160307 17.446199440911215 268.1073863337514
C 25.61285561073964 15.387859684409557 267.0073098069798
C 28.61774981176294 17.53754662488401 267.87563030036665
C 31.095894790466065 15.796119470418306 265.5596104533099
C 31.79530243693701 12.61809328369621 263.6284732858231
C 32.1963975501033 9.3589450029147 265.47091032484485
C 35.468544217497964 7.930784606338661 266.73298337092524
C 36.21938105675674 4.61823788229465 264.9922648436049
C 39.18029875660264 2.747829817427309 266.4835956406732
C 40.85420152294491 0.06412179606141499 264.37345139815903
C 42.64574257505412 -2.7282884258114195 266.1858657581103
C 44.08643733042299 -2.0848918357207857 269.62500757883674
C 42.937092411892394 1.2449560054802526 271.1165819743627
C 46.11573221434259 1.577201834104864 273.17807740451394
C 48.074628955119536 1.8056522833504547 269.90070134892966
C 45.792392982934466 4.656846009473021 268.72112750619965
C 45.68622281555133 6.780189491508442 271.88622512064865
C 46.59544709425801 10.041656732689031 270.1216636532929
C 43.33890422894811 9.863711218164713 268.1566069075571
C 41.18772900930753 9.059244456765482 271.199303711412
C 42.618537124762305 12.046460305266882 273.0660662036004
C 42.38682739855731 14.192899646294974 269.93879219346786
C 38.74012214207893 13.236865909870916 269.45471344833436
C 37.94080303477908 13.930075432475645 273.1121234295935
C 39.53083151748203 17.35706893494187 272.67224693666395
C 37.21532696674883 18.165761653764115 269.76773931983877
C 34.13806315604563 16.887205082892965 271.6195921140106
C 35.20623936662877 18.990966054226497 274.6172038009209
C 34.080159815991806 22.175961979239105 272.8746761311957
C 30.431833432694283 21.09312619438128 272.8296053449115
C 29.835528628077487 23.39648354786646 275.8225502482922
C 31.678632987659885 26.755529762991557 275.69575381541785
C 34.732811378703765 27.209667236321884 277.90708149748366
C 33.19134569248962 30.175635099145985 279.7369700850483
C 30.16543768892377 28.146728143638764 280.832909552434
C 32.27719938579786 25.274480538445673 282.14983722585936
C 34.75494640314791 27.666226331129096 283.77442069880715
C 31.970068179521316 29.598559709080543 285.49533071434223
C 30.610209282034187 26.30756246249991 286.85678045994865
C 33.88847856566264 25.02289184659547 288.2853266378162
C 34.564655356593484 28.448946562682416 289.7848575099324
C 31.11818812253881 28.332415299129746 291.38233989230434
C 31.61566605499083 24.711698000155103 292.46620757858324
C 35.057608242919464 25.46984811267436 293.9059523612492
C 33.804051731762435 28.410236099047186 295.9704497243454
C 30.971954128224816 26.461247604774574 297.5962453354181
C 33.46197714515203 23.778424696085555 298.6241228761524
C 35.77992147712388 26.345906388432976 300.2262235546502
C 32.75025342214596 27.7554208165807 302.04410830691336
C 31.378130514090614 24.43232549377773 303.31481495029146
C 34.819603541799744 23.410750815689287 304.57621382091725
C 35.143441551213556 26.768178428858185 306.3325285754397
C 31.766059679221737 26.33958778232375 308.0437116901636
C 32.59753342772124 22.779255926582564 309.106788473501
C 35.91706820908749 23.68107118773953 310.72669943703875
C 35.45855708336801 27.1935371815698 312.1059030958263
C 31.704289188028554 26.949675785505747 312.65604622265926
C 31.837235184523507 24.935950521029696 315.8890623611391
C 34.359580141610095 27.328556824112326 317.4470672432295
C 32.08384050966078 30.243393023069025 316.5433515179205
C 29.188277224248445 28.458467470892945 318.2457902203385
C 31.368311961117296 28.153331399783657 321.3515154730349
C 32.03423979265383 31.897962790409 321.2701490230745
C 28.29089705428474 32.48952968617785 320.9246350364167
C 27.742231315853388 30.401384714034872 324.05853457396023
C 30.308054392019905 32.60669007914822 325.8110411774519
C 28.861533696586456 36.05013833691069 325.07429612869515
C 25.125553920519756 35.60049601926511 325.64580230275965
C 25.135252670583032 33.17833554268088 328.570186643559
C 27.752669579821887 31.33220479266959 330.59169587166383
C 29.819514939512825 28.341928524745878 329.4881473254887
C 29.376628333179713 24.7014448497651 330.4591224333297
C 31.97638108154121 22.256636984177874 331.7109730775665
C 31.249916023229847 20.269734849337635 328.5447038268427
C 31.658559530097957 23.172763974438386 326.1135310224156
C 35.059886980709344 24.00783370444589 327.6296512618743
C 36.13591149939381 20.422313584498667 326.8243261551841
C 34.959725870811496 20.14540115876691 323.2097935751129
C 36.62294522891788 23.529934669215805 322.6565282061025
C 40.029671769949104 21.82797516598642 322.79290301151497
C 38.999546730495105 19.713761378400285 319.7903406300991
C 36.94161032489459 22.358770542730667 317.98623683170865
C 39.968579724950494 24.664918789427567 317.9833764829412
C 41.939299806010894 21.88590346907887 316.277535368097
C 39.2533159571665 21.830819867988684 313.58759984081144
C 40.20728930055266 25.455157032814096 312.9305287985799
C 43.74597700658811 24.33924510987636 312.0526356608973
C 42.86147914475553 21.58368137610538 309.5904129859825
C 40.82067233756723 24.107324263383482 307.61416942788054
C 44.163096860040284 25.718003261647866 306.77220641922236
C 45.54120070349207 22.280138513236256 305.8234349353484
C 42.8289212993842 21.088352895693472 303.43888922476793
C 42.509937492792304 24.41236874855008 301.60229080896994
C 45.90204871739199 23.914556194172054 299.88763441812245
C 44.636158788885794 20.39891396557107 299.143282005359
C 41.447898078672054 21.837055765798706 297.62666018128584
C 43.41541710682848 24.254934001077583 295.4477282917226
C 45.4918949613706 21.373846959753017 294.08574930160637
C 42.53295629924477 19.183150331191133 293.13248003577695
C 40.44461611765588 21.83280366391297 291.34024631144706
C 42.859008733327855 24.444590655456853 289.95739909681316
C 44.21181689604894 22.655531914962783 286.89083963947957
C 46.470769123255394 25.62777977214742 286.11030200001716
C 48.12594609296186 25.50308237910167 289.5399025262114
C 49.13162013444374 21.876358565915044 288.97646456673584
C 50.944135271329124 22.83863047397475 285.77407183110944
C 52.661520390476994 25.81793590499631 287.4121443288743
C 53.77371196032991 23.368825609669763 290.11103491962115
C 55.19046012132046 20.921028362751713 287.55906983734036
C 56.89403881393553 23.89788975959395 285.8799445804582
C 59.24616943071878 23.890626675013426 288.87817094166485
C 59.38641905666383 20.076749009949605 288.61775435209637
439
Mode 7 - Frame 10
C 49.16095324087636 35.98907647345315 337.3991527211798
C 50.58790485337319 33.80308571791775 338.7346885520703
C 50.43114713953145 30.567327116962268 336.77982745334407
C 50.20313780614473 32.94708627341657 333.81836817749854
C 47.462524688884066 33.87238416032457 331.36535725455104
C 48.98437940419989 32.14259755993344 328.34376098187596
C 47.87211960596071 31.328943234305935 324.81354154297134
C 46.96027146006816 27.653779220527614 324.328716360553
C 46.66490059078078 27.141194951898505 328.10907939064026
C 43.315475473058044 25.35082757101693 328.07685067910415
C 41.534559225383006 23.29324705734868 330.7472220709007
C 43.11360626098691 20.05039134886492 329.42527173178513
C 40.94068872862123 17.387607516513505 331.0264055660518
C 43.21594732096231 14.33944629609845 330.71715847905676
C 41.84079981012544 10.829351689630476 330.2466961907627
C 45.340064336619676 9.400164465769633 329.6776178363562
C 48.90044768661887 10.571218019525254 330.33638652357865
C 51.709636709383396 10.990421961632807 329.33106198055765
C 51.278797263933605 9.22131789035112 325.9888598990453
C 48.534111722306555 11.722021429160144 325.2063633146077
C 50.767964267266045 14.595412184184992 326.3081079451435
C 53.701394540540385 13.193120822700877 324.3274189728567
C 51.857280498095015 11.801843292718088 321.2993417792672
C 49.362347598781916 14.661942203344642 320.93564145221495
C 52.235047437899944 17.1334153216383 321.24413525130547
C 54.30531984474149 15.639743056167898 318.4164255230277
C 51.14111874699724 14.993366528088536 316.4004934737253
C 49.80649510895679 18.5410209471985 316.7448438839058
C 53.21756199089772 20.11173860893255 316.1274457769311
C 53.757713007923144 18.003002070029595 312.99857098395006
C 50.28569070482197 18.892016984951496 311.71851371818553
C 51.01246460683834 22.58103988508451 312.2510712553365
C 54.40346278614977 22.62453249416355 310.53190812262045
C 52.9416882860499 20.664168746085842 307.6116216058047
C 50.343850719734256 23.412778122079832 307.1518680276995
C 52.90242870267721 26.228761320203915 307.2467318396063
C 54.963928933020256 24.521735089016314 304.54522080535014
C 52.05740447670575 23.511536400363347 302.31318728953727
C 50.54565699930766 27.00483544949049 302.47618951239735
C 54.03708418579936 28.395329121818108 301.91804510921617
C 54.12193800739756 26.125254933393084 298.8607101426018
C 50.918466532700116 27.694527758219458 297.51200202692434
C 52.35016829855297 31.17056982550314 298.10825574316704
C 55.44173592564383 30.12838943160125 296.1362521998775
C 53.93619160683688 28.85043352157936 292.87559420911884
C 51.74234166280634 31.957100032160035 292.6078449224307
C 54.463436302940806 34.5677904717244 293.1206882371208
C 56.83434368014648 32.38218825674272 291.0840420272384
C 54.778599696049135 32.260219873809774 287.87480711180126
C 53.544015868141955 35.33387487993744 286.0130492079211
C 50.66555799150573 33.51524024618046 284.3006017199791
C 48.956992931144484 33.40756185878348 287.72906820107556
C 49.93409556610782 36.62677882317633 289.53706138610545
C 48.2288523419371 38.51142145432685 286.68737617806096
C 44.96412833218077 36.579038957719845 287.1493907956642
C 42.40568282888944 38.140680123412714 289.5386085170462
C 41.293425722221734 34.64207493039843 290.58132228635463
C 44.718872646676154 33.87951761375881 292.08547102260405
C 44.681450706339085 37.095971602571204 294.0864548893394
C 41.8612701612089 35.21751232530574 295.849984714251
C 43.73043306476156 31.941463998108922 296.4295838669997
C 46.9418572100163 33.702509247983 297.4301506335968
C 44.950741084802566 35.82038947853089 299.87876782667894
C 43.41814389342956 32.68979916541622 301.4165425485464
C 46.74048493598897 30.845836217765473 301.52172723536364
C 48.53940556030737 33.722551041814285 303.2519635514654
C 45.602734651532394 33.89907365895572 305.6672817750195
C 45.87621721597441 30.153647688095134 306.2977727703189
C 49.63161865004558 30.625473835058703 306.71240625550627
C 49.325351472769555 33.56078795250502 309.131334325838
C 47.29094987867703 31.32561106498246 311.4314663710187
C 49.28602787145543 28.123433143139035 310.99328981452595
C 52.46749797825993 30.081583994350247 311.758414247299
C 50.95792368056665 31.491265675473926 314.95757334930954
C 49.846630272957164 27.978531653332023 315.8846091632196
C 53.30298310616669 26.415483591854148 315.6052550910022
C 54.93185314380389 29.452850255554996 317.21870900898443
C 52.615400900323856 29.53196270404735 320.23885493308813
C 52.706865335839574 25.731755318169117 320.50435555280774
C 56.50968358981794 25.52311313798817 320.6373186855634
C 56.6889960418036 28.6971661459382 322.7507422009149
C 54.493973835111724 27.236531701296368 325.5237877544665
C 54.413009680362435 23.42728320320872 325.2908844144852
C 58.21460466146333 23.23179447124251 324.8799695137437
C 59.69499971970042 26.322869708112282 326.5502960457051
C 56.7829072751344 27.012426840307064 328.94195493083447
C 57.36986304598815 30.750118336568384 328.55227775651707
C 54.84474485476349 33.26527063995605 329.8605579024207
C 52.66528346133715 35.63845775618645 327.8561616452284
C 52.14465777227886 39.2462302552808 328.89585573888326
C 48.97561374778762 41.11252615068283 327.9048669699503
C 50.243978099195424 42.396233731094924 324.5520683677628
C 52.11557124162531 39.238315932576306 323.526662297454
C 48.937353208678054 37.25848491779364 324.22213486236757
C 46.573707210184224 39.498763281265965 322.245094862496
C 49.01757346137198 39.65285842465142 319.32984097820145
C 48.91683179559659 35.8579051113647 319.0414996193879
C 45.1292544316536 35.78063841186543 319.3904129056697
C 44.727550269472886 38.75436928694189 317.0604943516547
C 46.82321152503475 37.003287551297404 314.4329173111558
C 44.483223820105664 34.011905179704094 314.52102883239127
C 41.52308645652353 36.3976840156446 314.56027027726645
C 42.993080607960614 38.223797374127365 311.5547625838398
C 43.54510771169665 34.93504061174733 309.7109180334411
C 39.84379740878218 34.071210909466316 309.86874804519647
C 38.75080625656461 37.65284010416586 309.2056421961341
C 40.73651365096045 37.85629804187504 305.96821879182085
C 39.4321995955917 34.39788800281956 305.0443448622787
C 35.83164902572086 35.60097468415622 305.3355079308124
C 36.83654410965795 38.90052596430144 303.73963427588905
C 38.283844835298666 36.98345896408975 300.78975860041186
C 35.10667503754911 34.93472576218402 300.3149753290458
C 33.2413120018377 38.25031158623807 300.35882946759955
C 35.344240569488655 39.733987421106335 297.55234837590024
C 34.91529638996295 36.52065319078625 295.5695857955776
C 31.13373644195697 36.86674846635218 295.81635878608756
C 31.44361346060997 40.382738292468936 294.3768030455394
C 33.547215410126434 39.11908569303389 291.47081270663665
C 30.91051359701769 36.49362214776827 290.6977727475981
C 28.144149453450733 39.0883880447129 290.9778732345508
C 29.939855979705516 41.16899326631361 288.33787112017995
C 30.400195961652347 38.08800156314927 286.142167883384
C 26.669191418767095 37.348825815888375 286.393741862869
C 25.333100418913606 40.88328965353444 285.90684155619357
C 28.003074313681612 42.15096500572281 283.45872931597575
C 29.14063914039955 39.05643128822359 281.53711464626673
C 30.15031330890739 41.07471662200385 278.47255030399464
C 32.42125515990621 43.63208733215709 280.1658955990404
C 33.46822271864507 41.496789671395106 283.15811433669563
C 37.05160833337056 41.07854214451625 281.9332409520395
C 37.61256418550484 44.8448966811187 281.74119527743346
C 35.88455111900496 45.61593527344744 285.0667516341111
C 37.666965418969724 43.15246989412919 287.3753409750913
C 41.33994706604346 43.737273429746644 286.5603772404634
C 44.655980486021626 43.0564232298168 288.26502310379726
C 44.97636160806873 46.6084141722031 289.6804311695112
C 41.333195713361015 46.53522493497991 290.7908699151474
C 41.737213896580194 43.18800842534158 292.5532384825511
C 44.91201789289363 44.236402241756885 294.38557093213115
C 43.23509888190346 47.35967743560807 295.7721234980871
C 40.18741709292053 45.40789359744065 296.9460760932906
C 42.29007999796641 42.79077976397807 298.73515781883924
C 44.73714232093036 45.2910303988063 300.2380915202346
C 41.81082565398972 47.269748780795425 301.6483300067895
C 40.135206588887016 44.115384472294984 302.9142503158134
C 43.232439731048295 42.97686137978612 304.8074907247901
C 43.71093582847975 46.35198723311733 306.49018046309203
C 40.091090540752205 46.14564449790493 307.63083407308125
C 40.74451502564898 42.56656541883418 308.7493500981154
C 43.97426455195983 43.49174636779963 310.5512272810056
C 42.35074740249587 46.48557640458643 312.2398810883841
C 39.864877819110625 44.26157759086172 314.0635145247665
C 42.616418759883445 42.071797671093776 315.50542141543696
C 44.579120530487955 45.10689170957919 316.66923874434343
C 41.481540779308176 46.79121135793897 318.19118313309264
C 41.44579824619987 44.31539315425691 321.1065611536202
C 45.22635951212859 44.490522717405845 321.3234347459102
C 44.99239908172354 48.26663874969653 321.27931133316287
C 41.94717627462352 49.28713297835139 323.33871390845735
C 39.10548068971777 46.836244064180725 324.0186401938271
C 40.1484585008215 44.836995172414944 327.09134409735356
C 39.315112245929555 43.448338262807475 330.48762757308316
C 42.314675457821465 45.21726692806694 332.0124217510646
C 42.011489311926574 48.55743793987029 330.23023652570504
C 38.202305396088185 48.79478368143083 330.38137702036886
C 37.5443335726151 46.85277075972698 333.61870167970653
C 34.80343740174022 45.166885306785666 331.5897332279815
C 33.308957606980655 41.69278480542912 331.86060852797885
C 35.8995330020002 39.135908787572 330.8273702358993
C 35.392086592511546 36.22435637448404 328.44314756886115
C 35.167422903717274 32.78289861584952 330.0383452706293
C 37.25198343579756 31.353200729993667 327.16527974655173
C 39.974167785873924 33.85967725366741 326.3113031717773
C 41.983120283117444 35.88471212711192 328.84736886145214
C 42.11789469779833 39.68016368896491 328.5088876505674
C 39.230070727957234 39.6442943096654 325.9861337353542
C 36.25372193492597 41.983043382284386 326.30416398064733
C 32.8320825271549 40.373337095426805 325.99952464509494
C 31.349303217564362 43.29021912362079 324.06481795903
C 34.21146620190055 43.1503006827315 321.5696711359383
C 33.23994032085145 39.57266423815858 320.70288074993005
C 29.641970395597973 40.601465112122426 320.0302961522901
C 30.986341226041066 43.108853902190496 317.5036049139519
C 33.39301136837682 40.526628636648695 316.0718923596941
C 30.852156266982032 37.68683071656594 316.00053596961004
C 28.14169325327537 39.88130453107357 314.5089497017991
C 30.427547168883212 41.17470844995016 311.75582745231026
C 31.53634858517202 37.73651019586551 310.56345125805433
C 28.077374104949566 36.21752260487088 311.0843176213468
C 26.46333639075737 38.840497051689084 308.8381319160724
C 29.195208294864255 38.43837549266506 306.22844395938347
C 28.911759107786242 34.64082603872571 306.2868791621579
C 25.110715286909297 34.76756080342844 306.0931672388489
C 25.45694478373875 36.88443328420855 302.9551979897133
C 28.23357130898949 34.713061465642575 301.4972871220357
C 26.105918541640655 31.59500782533948 301.974654547893
C 23.18724739258637 33.234718108955924 300.16855753990416
C 25.462165504377136 34.645702691403784 297.46635408311914
C 27.299038344120344 31.386211705304284 296.7704264051878
C 23.956115562878942 29.610831064148336 296.3239753666176
C 22.76237480393719 32.30058374456909 293.9033926705041
C 26.10814218417101 32.18928024696479 292.06912427742793
C 25.91920026682578 28.41092281893597 291.6731546247407
C 22.248154934808987 28.59805066576881 290.6456144731302
C 23.001581187796088 31.24032331699074 288.0137118197322
C 25.911500170677172 29.10730480887521 286.80184964970397
C 23.48915550858018 26.270205143582338 286.01435136153685
C 20.89857711531482 28.497789404558944 284.3165927391734
C 22.844914371394946 28.631988493611388 281.0441628314601
C 24.4576901731707 25.191250962571246 281.1546118931943
C 25.21950126590367 22.357528745358824 283.48066761173686
C 28.640489003860203 20.832727921545416 282.9056529203513
C 27.867762161753557 17.10913400882702 283.18014888891094
C 28.98579051428433 14.533138620308637 280.63054049876195
C 27.549096836266457 11.02418167902919 280.39604518562965
C 29.47147672069643 8.131285856005396 278.86341186590715
C 27.73853764917414 4.805594692764514 278.1821355265636
C 29.912949625071573 2.042265111155812 276.7531590858251
C 29.38386109955298 -1.530075355192868 275.65630535402016
C 32.52040051529885 -3.6793448547108967 275.71183808125284
C 33.30173643128663 -7.3839849894015215 276.12743021733246
C 37.106174070037966 -7.483378127738462 275.8924562697558
C 37.570604105521895 -3.971098279988599 277.2968133098273
C 38.782893129373726 -2.059622260894225 274.232555606611
C 35.775326710520176 0.2562189049603417 274.2567734816972
C 35.96045391541771 0.47182171265320516 278.0629527877448
C 39.58166902631976 1.6133309660495259 277.8280004973719
C 38.554381976890255 4.0586618903776985 275.0953397398555
C 35.78023828540127 5.509612466871387 277.2570870806114
C 38.02482043778613 5.752637634091565 280.3289405873188
C 40.586601733692184 7.646853990950819 278.2399798928544
C 37.93655260430747 10.086651028486697 276.9962739792772
C 36.667602083379435 10.333186429316006 280.5771449550015
C 39.89935543253325 11.782683010576939 281.9805681278532
C 40.38120799925246 14.33327869498894 279.1808823421394
C 36.89564199586309 15.719569153026516 279.838154563481
C 37.434983913652864 15.525790723483126 283.6025066981225
C 40.490694413090914 17.77335037330085 283.25698659601267
C 38.62656230449116 20.15346181047444 280.93926061489196
C 35.95403634220087 20.980423794174378 283.5256108122774
C 33.17920421649613 18.427243683192827 282.9812259155482
C 31.521362784276207 16.47488038508036 285.7830516716744
C 32.02290406742759 13.135246029572926 284.0405018544615
C 29.728619722198957 10.165131282683488 284.7464677169638
C 30.887922006231666 6.913202340222313 283.12729214982136
C 28.561666675316083 3.9006072103525504 283.1384820129331
C 28.51117568952053 0.4490142053981449 281.5751461120745
C 25.5603956501602 -0.09511125590064094 279.23478833543004
C 24.584010555246007 -3.2634228071492672 281.12405169153
C 23.777611817224592 -1.2236569283184604 284.2592339900109
C 21.551005317599394 1.5705447992277433 282.88636352399607
C 17.85901601636635 1.9972733410935481 282.13623879800707
C 17.04095732726197 3.8163310665040346 278.90645829785177
C 14.103292351050923 5.842493445524185 280.2336825710584
C 15.250745689376004 9.400722797404008 280.8776835145855
C 18.88806017549534 8.29249211120496 280.8821604270409
C 20.291483699108493 11.44495296317064 279.26842015906107
C 18.408256759156973 13.850044635368446 281.54605237501545
C 20.60094630257542 16.190557963064965 283.5645524440213
C 23.522921311759653 15.830012167910368 281.1417885148174
C 24.278968539488368 18.264284402548007 278.32690703966205
C 26.949235947251914 16.03270138298799 276.78370280934615
C 26.383304306638863 12.321664962721472 276.1420114432928
C 28.954523654688188 9.98778995608274 274.58800845318007
C 27.780091594107994 6.546651086081975 273.50627291700926
C 30.451313842584277 3.9389207911750175 272.7973837370929
C 29.882060705886122 0.4705972148333055 271.4029910207719
C 31.92998878868592 -2.2407635082913053 269.70976881181537
C 30.77106185756594 -4.137270466407539 266.62365127519496
C 30.214149567598646 -7.90889768389177 266.65456993547053
C 28.930795683221916 -8.798267107575107 263.2017726469006
C 29.783501536777848 -12.501366023860724 262.9429948539303
C 28.283375344941657 -12.631404195866349 259.45697300019856
C 25.954734055940307 -9.620180720177876 259.82355241476387
C 26.253518123132217 -6.373649654403333 261.8084396702863
C 25.561520544010047 -6.463646979940135 265.5383963925162
C 26.05862942701579 -4.163506585942007 268.50322054929353
C 27.856639031558867 -5.335544529203546 271.6154083176655
C 25.248173913017837 -7.289807315979851 273.52061521829796
C 25.1165077180553 -5.084750544041557 276.6153561816669
C 24.258907168002445 -2.082017360376046 274.4254898539483
C 21.31872492284643 -3.562046089507965 272.50172594038406
C 18.666395886792465 -2.946852935678777 275.2239852322784
C 19.657853393768733 0.7254681627349701 275.2546885246208
C 19.764852950434467 0.8903048241767362 271.465121673036
C 16.29336334474296 -0.6304113192218728 271.15326472084104
C 14.802800796810937 1.958956568047678 273.5361498247559
C 17.01459214433018 4.890442256575968 272.5704244534366
C 14.029050083556642 7.167296771495562 271.8902211262045
C 13.261503100649465 7.111429268524591 275.64032755857113
C 16.63245102397874 8.569318718354703 276.6608775525324
C 15.89149071868533 12.229184879694126 275.92162659549246
C 18.293469639498852 12.558043947892328 272.97469232731464
C 16.31325131349195 15.139002858429693 270.9846625465895
C 18.044137731970714 18.502938022901517 271.13309184235015
C 20.8731768126472 17.13333613266258 273.2619346453142
C 24.567369415891157 17.154580782998714 272.3493864630598
C 25.882651250933126 13.644312557204634 271.6423778289207
C 28.776413497422038 11.88236232923551 269.94341255911775
C 29.683348429284298 8.255848357397435 269.3513634928622
C 32.80798096194915 6.126958178690368 269.5636583793425
C 33.5443369621633 2.4440344431284613 269.17286273383485
C 36.1973712418294 -0.22128758816926977 268.67820117104617
C 36.24481242092569 -2.408643462229064 265.58774378704817
C 38.55053746514663 -3.987487416211512 263.0288223521542
C 38.831603775331025 -3.1239416704935024 259.34816691170283
C 39.07208174740406 -6.73986959381517 258.1409182814058
C 35.30617568467495 -7.0103152812650835 258.6665171905342
C 32.937550423845764 -5.787959740604053 255.99179954973042
C 31.36724524721298 -3.0446055370357845 258.12770768610903
C 34.16450971477388 -1.4057835350652803 260.10354369023673
C 32.619503942327505 -0.0896239498867254 263.3297181289912
C 29.130063312236487 -0.6022039711552236 261.93310450019857
C 27.870102514553388 -0.16504982505787938 265.4958236660645
C 28.749302674398685 3.537318538599238 265.68067853919314
C 27.137044717275188 4.004447298826593 262.26126637295283
C 23.90186837171195 2.461031418211762 263.52914967414443
C 23.95218367907224 4.500316542191593 266.74439580310667
C 24.67207658257411 7.788452975306314 264.9595583665423
C 21.92779328591423 7.206527452913168 262.3775113807083
C 19.388830219826318 6.575983161415212 265.1341967234253
C 20.644572918812894 9.610322986269573 267.05413957248965
C 20.134971205466076 11.689497743050202 263.9059383944617
C 16.638741199839775 10.266050939522133 263.4653716536605
C 15.887971342350337 11.253422824505584 267.0769988578479
C 16.874645534736693 14.889557880815081 266.5791726448966
C 19.99413615504351 14.755211497437339 268.7244834363302
C 22.610240217218745 17.44957907559935 268.10610009477097
C 25.61501428821519 15.391537916716217 267.0057621890206
C 28.619828541405194 17.540269369874924 267.8761997961189
C 31.098586407015848 15.800042697044654 265.5600029095226
C 31.79840464205112 12.623181142633861 263.6272686797212
C 32.19859718140739 9.362973235160302 265.4679679113429
C 35.470194293693766 7.933754295129089 266.7303026476003
C 36.22131394167344 4.622239929072742 264.9878602216002
C 39.18152374370793 2.7506166500244325 266.4790720360914
C 40.855882238433544 0.06804481475898316 264.36786780583583
C 42.64648084666847 -2.7256698354461126 266.17917223507357
C 44.08604060200992 -2.084543878354028 269.6191954460608
C 42.93654770760594 1.244512903884948 271.1124172196555
C 46.11450445821792 1.575127427660638 273.17520945992226
C 48.07457272212747 1.805325743643116 269.89867168936485
C 45.7930731035297 4.657485626323311 268.7200432222202
C 45.68602408027536 6.778920851602977 271.8863838072916
C 46.596211783924694 10.041329795179665 270.1241077141165
C 43.34034330359384 9.864899328318007 268.1578043438091
C 41.18802145878117 9.058864972608033 271.199276557485
C 42.618489102047235 12.044809824704227 273.0682954596022
C 42.38809452837262 14.19308743262433 269.94220823892925
C 38.7414523267621 13.237682561491658 269.4562589871056
C 37.94091005185181 13.928816990246432 273.1138111271746
C 39.5313830230151 17.35590048064037 272.67642698792343
C 37.21699646668295 18.166408812605496 269.77151772058363
C 34.138951579479794 16.88700793304082 271.6215955359335
C 35.206217965575945 18.988912728154492 274.620761859799
C 34.08095019034721 22.174803087526406 272.87926484447195
C 30.432563580999354 21.092310248695682 272.8325910609288
C 29.835123737014783 23.393936919225744 275.82643496036
C 31.678218766119713 26.752889595392336 275.7012296532075
C 34.732291800752364 27.20540545159583 277.91333270122624
C 33.19024190112799 30.170392710678914 279.74349947085085
C 30.163878637423256 28.141388029339787 280.8383714662438
C 32.2753040122548 25.26871552677141 282.1549479781607
C 34.75298424102263 27.65967938434486 283.7802839475653
C 31.96782690872742 29.591982955972906 285.5009337873336
C 30.607776581682163 26.300717242209227 286.8619856945226
C 33.88566416145776 25.015570142046624 288.2907512612722
C 34.56227218105482 28.442067001145684 289.79005585569826
C 31.115846720996537 28.32603027128835 291.3874951097082
C 31.613281922940534 24.70528769686237 292.47182166077374
C 35.05531868667588 25.463871423284665 293.91149985465387
C 33.802258966526814 28.40511879098571 295.97523749398493
C 30.970348903434324 26.456665710036642 297.6019454488859
C 33.460459269489746 23.774274003157753 298.6305491943576
C 35.77867679958121 26.34224907085231 300.2314785804577
C 32.74933669440457 27.752432761542767 302.0492842296729
C 31.377403589195442 24.429882403282036 303.3214476132303
C 34.81901313892029 23.408806140452445 304.582810822029
C 35.14313385243495 26.76682137102843 306.33784573725535
C 31.7660543434814 26.33890938144912 308.0497277362621
C 32.59766454955291 22.779054230948528 309.11404935266916
C 35.91741973872818 23.68142245106787 310.7331636136659
C 35.459133125232654 27.194383223802642 312.11109736589407
C 31.704978588615226 26.950777656584187 312.66194295220737
C 31.83846585541784 24.938368933868755 315.8957623108183
C 34.36104819193333 27.331546878228878 317.4524256513753
C 32.08519587425432 30.246040094135132 316.5479692538967
C 29.189951171510426 28.461823141823782 318.2516204312841
C 31.370519244676093 28.157950934462185 321.35710202730536
C 32.03645352857863 31.902525874344192 321.2741590144891
C 28.293052026417143 32.49395267865882 320.9290486098486
C 27.74489284467696 30.40707236607828 324.0638511994661
C 30.310999960081205 32.61306568543364 325.81506081102043
C 28.86434700446039 36.05620564480506 325.0772200838049
C 25.128454827235124 35.606799568860325 325.64948566538766
C 25.138627546165754 33.185815731041465 328.57481912045773
C 27.75636480880993 31.340501334020995 330.59664044801474
C 29.823045180422017 28.349802731370833 329.4939456087332
C 29.380327249906404 24.709719928331122 330.46644286115327
C 31.980280918301187 22.265431326598076 331.7188433008573
C 31.25332099744338 20.277268743889575 328.5534921930606
C 31.66154934228044 23.179311787972775 326.1210831405217
C 35.0631157375222 24.01500113264814 327.6362985597039
C 36.1390486570619 20.42916988705568 326.8322542178661
C 34.96225377595591 20.150819119528045 323.2180374751908
C 36.62536411490879 23.535126116401422 322.6630970989771
C 40.032115105086774 21.833252399479846 322.79961720816647
C 39.00146480301944 19.71780602796334 319.79808858461695
C 36.94316508362352 22.3620097099142 317.99318940350526
C 39.97013721952871 24.668144702318273 317.98888605689666
C 41.940524699291736 21.888415495694513 316.28383539963113
C 39.254092371407474 21.832266485094944 313.59434114304685
C 40.20797869107889 25.456305284015833 312.93566712643985
C 43.74651550437629 24.340027858361193 312.0576750275151
C 42.86161511986447 21.5835310493074 309.596634552332
C 40.820522818877855 24.106401201939384 307.61969751400835
C 44.162819979066334 25.716751271996046 306.7766583140329
C 45.54073572418097 22.27851680313455 305.8289392832493
C 42.82812367274616 21.085907355274625 303.4451576190377
C 42.50887019734211 24.40920653475332 301.60736100776495
C 45.90070325667564 23.91075137240524 299.89240567484495
C 44.63462467300173 20.39489834253044 299.1494258752907
C 41.44620845810138 21.832491022808604 297.63268083263875
C 43.413412860497964 24.24957548168202 295.4526699694933
C 45.489579770489684 21.367959780445254 294.0914043569678
C 42.530367403320305 19.177057214347005 293.1388744214106
C 40.44187882234227 21.825847471524213 291.3458569306483
C 42.85641514942918 24.437474693510325 289.9624596139166
C 44.2089722427383 22.647616541803554 286.89630780399716
C 46.46792874116704 25.61957401781215 286.1146559422326
C 48.12335810955056 25.495743639612527 289.5440239631744
C 49.12888248000117 21.868816319385356 288.98160863737246
C 50.941083339033575 22.829991032928156 285.77871457304514
C 52.65870224684083 25.80980559829369 287.4155288909645
C 53.771144910015465 23.3615992341686 290.1151445196862
C 55.18755795916624 20.912889789678307 287.5638915715383
C 56.89099550560643 23.889137729594616 285.8835258154609
C 59.24347207234535 23.88288164364748 288.8814637173825
C 59.383609972980175 20.068903633980998 288.622425478879
439
Mode 7 - Frame 11
C 49.16805438903741 36.00509922311605 337.39884727099053
C 50.59543853805991 33.81995849750064 338.7353003045808
C 50.43822077535999 30.583030522210148 336.7824059608944
C 50.20936142467047 32.960979278511104 333.8195929491232
C 47.468125851433776 33.88481599546604 331.36672546630564
C 48.98929172988302 32.15329643250768 328.34578136000107
C 47.87621745286656 31.337606595271165 324.81630250869154
C 46.96420587008378 27.66218207291227 324.33372276567815
C 46.66973896515927 27.151809060365565 328.11445995613815
C 43.32023227723503 25.36149380725644 328.08382448951284
C 41.539871706999705 23.30555645579848 330.7558458676662
C 43.11862828816922 20.061970822402895 329.4354492751236
C 40.94612472525843 17.400149549854966 331.0386924736589
C 43.221630406402284 14.35201120504812 330.7311831291434
C 41.8466457161878 10.841504351507643 330.26362424045874
C 45.345872708946374 9.412201802621023 329.6945570037801
C 48.906343555580634 10.58395720896944 330.351513938526
C 51.71522197731422 11.002564652596593 329.3451003228424
C 51.28350840911639 9.231205103698317 326.0042039271597
C 48.538494468366075 11.731241256116114 325.22078457133256
C 50.77250982603099 14.605427908424577 326.32001141145184
C 53.70545337690451 13.20190087587074 324.33942019762884
C 51.86050417435293 11.808676260913138 321.3127728597578
C 49.365419863835335 14.668477356544336 320.9478948898707
C 52.238162292861915 17.140167124495456 321.25404837935616
C 54.30768659647355 15.644745673445055 318.42672313515516
C 51.14294647146281 14.99714555860716 316.41205845673926
C 49.80841132159225 18.544990902552822 316.7545145736156
C 53.2193268233666 20.115322954529855 316.13532838063793
C 53.75860507092596 18.004704459551668 313.0075709441586
C 50.286302151877976 18.893007806841638 311.72780558438876
C 51.013250025268206 22.58231123820845 312.25801376812404
C 54.40382279210784 22.6247407189628 310.5380224407335
C 52.94130684441664 20.6627258999589 307.6191954805654
C 50.34344623034168 23.411106921158687 307.1584137057015
C 52.90208409339876 26.227092503305478 307.25116848732466
C 54.962945784843704 24.51850920109896 304.55015563466685
C 52.05592818269752 23.507203582273178 302.3192619965812
C 50.54428676506921 27.000602089508877 302.48070311106983
C 54.03565333795429 28.390741933996818 301.9211602945957
C 54.11981844949574 26.119117479218243 298.8650079786441
C 50.916130091930526 27.687784031776648 297.5161165571514
C 52.34801606457695 31.164103910661954 298.11034780974893
C 55.439219370366814 30.120955881009998 296.1383447692177
C 53.933042833752666 28.841432922080013 292.87863148256497
C 51.73917159824012 31.948004861294486 292.6097114999379
C 54.46039470013029 34.55888111474255 293.1207324732399
C 56.83088954879947 32.37222922604776 291.08474551533186
C 54.77454167745688 32.24869556399143 287.87596960291927
C 53.53961501823925 35.32140628950327 286.01290033552596
C 50.66079643903276 33.502010362481805 284.30193524446815
C 48.9528791163184 33.39613091489483 287.7307612072457
C 49.93039285918888 36.61616843577098 289.53691078574445
C 48.22461658508168 38.499442871384744 286.6866133507047
C 44.95985341499517 36.567540318134334 287.15018668718153
C 42.40189679509589 38.13050941135325 289.53908973547794
C 41.28995994990252 34.632557650418825 290.5839724721854
C 44.71562724066532 33.87036319212749 292.08767443339843
C 44.67869084036635 37.08774599623425 294.0870997963179
C 41.85881969337328 35.21020322756352 295.852115237199
C 43.72795948249688 31.934303647795627 296.4329063884318
C 46.939607226206796 33.69576814796264 297.43197383366413
C 44.94907513911069 35.814942385059766 299.87993589197356
C 43.41670457365272 32.685145282981914 301.4195871521251
C 46.73899722559132 30.841177077963334 301.5250294142199
C 48.5383547833564 33.718783707324405 303.25338762585704
C 45.60220474081838 33.896651072877845 305.6692282576649
C 45.875760724331386 30.151569323677503 306.3016360492877
C 49.63124708908377 30.623562028965264 306.7151864172014
C 49.32558538274326 33.56025047890161 309.1325639006839
C 47.291666441754714 31.32637570242672 311.43437989317744
C 49.286591477846805 28.12393924542183 310.99750540076246
C 52.46827866160977 30.082494363123747 311.76076760422666
C 50.95949530252085 31.494065784107764 314.95947846040025
C 49.8483854168662 27.981861583375494 315.8887794369837
C 53.30468818647639 26.41867845108376 315.6094756041689
C 54.934002335318105 29.456986320662615 317.2207367615572
C 52.61832371213717 29.53792738731709 320.2414295415301
C 52.70986413904212 25.73789131774703 320.5091293725014
C 56.512708181012556 25.5293402566853 320.64124639474073
C 56.692543860181345 28.704662755752338 322.7527652438756
C 54.49823425575261 27.245679125601193 325.5272232365208
C 54.417265014911024 23.43632399670435 325.2965764257422
C 58.21877557398291 23.24062083050889 324.88479810862435
C 59.699540248109884 26.3326786238884 326.55294995482876
C 56.788028481607995 27.023575607144952 328.944941021379
C 57.37484863787732 30.76102709654517 328.55294779691957
C 54.85003099737729 33.27686724091369 329.86047874149557
C 52.670067510109035 35.64889268501223 327.8552873677237
C 52.14967249051005 39.257265025351195 328.8930384027335
C 48.9803509321259 41.12295137499506 327.90176425968156
C 50.24795413426447 42.40471398312243 324.54794384921456
C 52.11932122528494 39.24621695993372 323.52387240876084
C 48.941276019361354 37.26678763860273 324.22126438509025
C 46.577154120688476 39.50589138284741 322.2435206094616
C 49.02032989818167 39.658270343073085 319.32759329752855
C 48.91955157729342 35.8631685151261 319.0414287282581
C 45.132056135676144 35.7860815479607 319.3913475502622
C 44.72974243590769 38.75843170654592 317.0598566468853
C 46.82474230465968 37.005800775424895 314.4327871536283
C 44.48475285517966 34.01447265864017 314.5231530954044
C 41.524634982153266 36.40028287560878 314.5617927205214
C 42.993920512094896 38.224677466386694 311.5549381611528
C 43.54551809926472 34.934892959065614 309.7127742372073
C 39.844251825314544 34.07118098346521 309.87190538106995
C 38.75111752741281 37.65243712101914 309.20711186772047
C 40.73615698834716 37.85412739858403 305.9691809792798
C 39.43160371383961 34.3952079790011 305.0474175156153
C 35.831131264476355 35.59842425136943 305.3386993365807
C 36.83575745444208 38.89718785887641 303.74096318101124
C 38.282447948960744 36.97856957237364 300.7917793164436
C 35.10516035358978 34.92951473387444 300.31866797663224
C 33.239848829113456 38.24515932546525 300.3614076893466
C 35.342361861509914 39.727604143782216 297.55385973771894
C 34.912842200522334 36.51332410560297 295.57262426282335
C 31.131361703690068 36.85954775276306 295.82013891512076
C 31.440972391659738 40.375255241915006 294.3795269065896
C 33.54392136931712 39.11056011783052 291.4733933066012
C 30.90689346585003 36.485020454857846 290.70191981033065
C 28.140580990712078 39.07996145901812 290.9821479294325
C 29.93561970668615 41.16019702502269 288.34129477345067
C 30.395201997153137 38.07877847380831 286.1462588801932
C 26.66433998912903 37.339627663373705 286.3991703202734
C 25.32797812072946 40.87388379670104 285.9118301972755
C 27.99724626822624 42.14132143271517 283.462740650963
C 29.13402150017907 39.046437773726204 281.5413550871748
C 30.142606778845863 41.06411506033965 278.47601947796045
C 32.414408222241725 43.62157506059911 280.1680387665696
C 33.46223172569945 41.48702908635263 283.16036835774986
C 37.04527884490759 41.06782344923993 281.9341999951791
C 37.60652474173431 44.833985790278234 281.7410256791958
C 35.879932431942905 45.605728358080675 285.0672125456239
C 37.66299739812347 43.14204523101966 287.3752925940436
C 41.33583975902894 43.72588341113189 286.55876292074305
C 44.65229410784717 43.04543762683944 288.26274958127436
C 44.973614384273624 46.5979974154927 289.67653895346484
C 41.33075580895063 46.52582826107968 290.78790867725377
C 41.734629521878 43.17921003313209 292.55164385122833
C 44.909887000017214 44.22825742217955 294.3827940072883
C 43.23338216828436 47.35234491032048 295.76813304735225
C 40.185655228254326 45.40123985224192 296.94351127153436
C 42.28850785406416 42.784851621989716 298.7334327426424
C 44.73598700481572 45.28577614552415 300.2346731679255
C 41.80985716010269 47.265385827988425 301.6443102544791
C 40.13432593431451 44.111640772399156 302.91208644438615
C 43.231951666681375 42.97404324324714 304.80529274166827
C 43.71080304352415 46.3501444711047 306.4860400393073
C 40.09107769390044 46.14441792776381 307.6274522500183
C 40.74472572906048 42.56591763032347 308.74773962963013
C 43.974936465960475 43.49206613628086 310.5483572266438
C 42.35177647551341 46.48691352108335 312.23564125268757
C 39.86631405808927 44.26390777092721 314.06102938411976
C 42.61820391543961 42.0749479655353 315.5035170471778
C 44.5812317824334 45.11073811222427 316.6650900510162
C 41.48401807284486 46.79600563748149 318.1867585499209
C 41.448948459039435 44.321864321909935 321.1035018357131
C 45.229571977063955 44.49711739157863 321.31940013213773
C 44.9956059321184 48.27321696001627 321.2731658764095
C 41.95084040998772 49.294918074863226 323.3326532204567
C 39.10924352181201 46.84443906950404 324.0145764289942
C 40.15293393265385 44.84692817629721 327.0881736873488
C 39.32034625931163 43.46020904928033 330.48541017252006
C 42.32025522772595 45.22999917786495 332.00853087140416
C 42.016669823312554 48.56915269286787 330.2245273542118
C 38.20751200334212 48.80659126733498 330.3763573653995
C 37.55024563324366 46.86642475260424 333.61491297116544
C 34.808909059216404 45.179387924390426 331.5875008360164
C 33.31449734266479 41.705443573468415 331.8606640740496
C 35.90484920445976 39.147982402671865 330.8283109349171
C 35.396898575054244 36.235089468926795 328.44582254540427
C 35.17261283778199 32.79454800340805 330.0429786589941
C 37.2565262747344 31.363246457525534 327.17020621268546
C 39.97854257705874 33.8692296963168 326.3143817405904
C 41.988069375560904 35.89567852425813 328.84887731657034
C 42.122733908333686 39.690924123607985 328.50819414050903
C 39.234317400446116 39.65361730780275 325.9861147596087
C 36.258018097752206 41.99254387484549 326.3034312620394
C 32.83632752545244 40.382654022680924 326.0004434349503
C 31.35309123123035 43.298417667766884 324.0644181180626
C 34.21466352859537 43.15706875173408 321.5687245666593
C 33.24292848441043 39.5789550513737 320.704174682784
C 29.644812401573116 40.607358508574784 320.0318149241309
C 30.988563053704834 43.11327323041587 317.5033771922781
C 33.39485432882382 40.53022858624304 316.0726170841558
C 30.853978667726828 37.69040199298628 316.00343961640584
C 28.1431556803502 39.88395723620596 314.51122708294326
C 30.428320872562242 41.175743049954924 311.756845167038
C 31.53686668540758 37.736863474846224 310.5662250343257
C 28.07803047444693 36.218157903674324 311.0886711523359
C 26.463430550451932 38.83971707354112 308.8413766746736
C 29.194753069039958 38.43619385986055 306.2313606615352
C 28.91136761723769 34.63872236808896 306.2918624673194
C 25.110330014116805 34.765210986559765 306.0988191200806
C 25.455817496229542 36.88039887783727 302.9597103855371
C 28.23221323337341 34.70837036535835 301.50235443193
C 26.104653087359903 31.590608116632197 301.98151429714227
C 23.185651497016313 33.22922438602509 300.1751472731033
C 25.460013666867475 34.63907603391416 297.4719794529669
C 27.29676265914392 31.379370933424994 296.77703474512714
C 23.953828921312017 29.603760521005555 296.331640936431
C 22.75962570777675 32.29241317150875 293.91028957760676
C 26.105142313952133 32.18072706645166 292.07563359608685
C 25.916050264973407 28.402136573442473 291.6806528693007
C 22.24515325539864 28.58882060924391 290.653189359948
C 22.99809335642456 31.230770793370507 288.02098911347446
C 25.908165725116447 29.097754911376487 286.8092492769843
C 23.486011857487355 26.260669387618922 286.02125412998
C 20.895373642328614 28.488454528187706 284.3237450390184
C 22.842088715862282 28.62446994194982 281.0513761310266
C 24.455321999994375 25.184262730197823 281.16048446284077
C 25.216308555210887 22.349224085881342 283.4852552630349
C 28.63715614276215 20.824536891174983 282.9098169854043
C 27.863681090858645 17.10074346835266 283.180553433833
C 28.982414871790812 14.526591999018963 280.6293286850873
C 27.545393949124357 11.018054618935816 280.391072614781
C 29.468003712189873 8.12613724610224 278.8568264737258
C 27.73491410523951 4.801253603549809 278.1717583069582
C 29.909551406305507 2.0388221279840932 276.74135962069045
C 29.380475441696642 -1.532476797612979 275.6410797683736
C 32.51665453905687 -3.6822756188513592 275.69625312625556
C 33.29723334048484 -7.387392485737651 276.1089234385884
C 37.10175077282554 -7.487155512379627 275.8757903679355
C 37.56597790018865 -3.976192384731878 277.28350211397316
C 38.78007048787719 -2.0622298832566006 274.2215512206546
C 35.77286821888751 0.2540594904275179 274.2463057424657
C 35.95613280113874 0.4663132893657941 278.0527433872697
C 39.57760117043669 1.6074665041203944 277.8206221327634
C 38.55205753376735 4.055304498365012 275.0896159232786
C 35.777082889082955 5.504843184874076 277.25125722365294
C 38.020163537009516 5.744885085442113 280.3244085287625
C 40.583252877327844 7.640489646067482 278.23842195289353
C 37.93420395081428 10.081734384701454 276.99552565293396
C 36.66354372604824 10.32549790223395 280.57598926513776
C 39.89476451147748 11.773363230476527 281.9821901992779
C 40.378340680783836 14.326144637385356 279.18487196420296
C 36.89271309749823 15.71239388225358 279.84167988917517
C 37.43044570751132 15.515746208619742 283.6064077301471
C 40.486339174532176 17.763084559303838 283.2639411211345
C 38.62350282328665 20.145024758135843 280.9466019302108
C 35.95020014830814 20.97085701381944 283.5326186574549
C 33.17534420287433 18.418411910183316 282.985308678158
C 31.516061368730014 16.464255587029037 285.78488891347564
C 32.01766773933887 13.125562582015345 284.03957930457693
C 29.72271428858184 10.155038445783239 284.74171897356996
C 30.88211557172148 6.904234543108119 283.1202980733779
C 28.555470798968646 3.891865746646147 283.12762995947344
C 28.505191369550083 0.4416338957541378 281.56122013373994
C 25.555515242074637 -0.1000616292183304 279.21892665834116
C 24.57776588568249 -3.2698897673453953 281.1048891705646
C 23.770146712277217 -1.2327865841273185 284.24146450536415
C 21.544619500937042 1.5629473132121052 282.8699945624365
C 17.853054352462852 1.9908494945052648 282.11846863115244
C 17.03684856428039 3.8128787249101532 278.8899339985343
C 14.098852270913643 5.838308612577666 280.2175521203649
C 15.246525065481263 9.395795970307717 280.86524207703275
C 18.88365303881031 8.287030455156007 280.8705026618707
C 20.28829348097302 11.440702929141231 279.2602727971926
C 18.404389290242843 13.844078910707013 281.5390923202839
C 20.596413433079807 16.182674828689056 283.5606430203019
C 23.519527110377055 15.823767269525472 281.1391226073784
C 24.2771284299198 18.260129230765806 278.32663644928965
C 26.947783565933378 16.029480277628096 276.78275174591874
C 26.38170033551853 12.319158476392664 276.13761122123316
C 28.95331423102371 9.986258966301653 274.58275731376875
C 27.778943475635867 6.546274922762203 273.49743699600566
C 30.45013418921586 3.938790139866647 272.78753885990824
C 29.881058860422062 0.47178948828875056 271.38979649973373
C 31.92942281838259 -2.23838492957492 269.69518691736675
C 30.77176253192885 -4.13198214986865 266.6068158137303
C 30.21427023568163 -7.90352037129474 266.6340568683032
C 28.93252735702384 -8.789573901143598 263.1798119142545
C 29.784849276288334 -12.492516891900822 262.9180228966003
C 28.286443673084975 -12.619144281192003 259.4311528020809
C 25.958035267023053 -9.607952514529291 259.79935268659625
C 26.25628241189968 -6.363341375329904 261.78737752540144
C 25.562439915769446 -6.456602556555344 265.51691471751604
C 26.058398227176692 -4.159177998228129 268.48403406905453
C 27.85470378568943 -5.334190253378524 271.5960533046516
C 25.245027650514388 -7.289692765697553 273.49825115242896
C 25.11217896970556 -5.08733996427353 276.5948734440845
C 24.256082534561084 -2.082582458187313 274.40725839388864
C 21.31663559956909 -3.5604787568860368 272.48076506682764
C 18.663076238100288 -2.9472994734847946 275.20227811637545
C 19.65503639036791 0.7248341739184252 275.2367126556656
C 19.76388058344752 0.8929574877206412 271.4473681250751
C 16.292318557769814 -0.6269475905481949 271.13251118012005
C 14.800984488296145 1.9605235235883187 273.51697337964066
C 17.01365678319177 4.892507858719939 272.55489818820183
C 14.028759196647416 7.170376248446354 271.8752912722053
C 13.259445251783527 7.1113683594977655 275.6249569320449
C 16.630116783745812 8.567854592622048 276.648408582883
C 15.890002187779334 12.228449195714784 275.91203103960373
C 18.29340300222359 12.559456614813298 272.9665063474192
C 16.31449266698209 15.142407819324593 270.9777578047185
C 18.04582087238334 18.505926512517227 271.1299572248759
C 20.873577395462743 17.133997890057994 273.2589642228398
C 24.568168340990212 17.155349717161823 272.3481965055525
C 25.88326829611207 13.645545220807847 271.638776961925
C 28.77763183859056 11.884723052831248 269.93966487397506
C 29.684434112718517 8.258707679405795 269.34492685461515
C 32.808693114612964 6.129234357046121 269.5568961190333
C 33.544714821320774 2.4465835808423617 269.163233672213
C 36.197602346765876 -0.21869275734760918 268.6675308565876
C 36.24625793927046 -2.4033022212123765 265.5751519071495
C 38.55301522893059 -3.9801818528273913 263.0159355440916
C 38.83605859412401 -3.1133081766383617 259.33622444588235
C 39.07661063688052 -6.728111204779953 258.12574761759697
C 35.310407464826824 -6.998493653517295 258.64927508356845
C 32.943289825124744 -5.773350755218078 255.97451737874212
C 31.372318498737123 -3.031749492928851 258.11214123291387
C 34.16883598957478 -1.3951724790887352 260.09083831185876
C 32.62241213348311 -0.08173145262286433 263.31741367026103
C 29.13360158559435 -0.5925264912778816 261.9186168651046
C 27.871932542244792 -0.15837391268037532 265.48109209806177
C 28.751529972165393 3.5436584032181475 265.6696567102995
C 27.141011299886912 4.014032369830419 262.2498773556284
C 23.905008634423677 2.4699660472786467 263.51479751957703
C 23.95400219030816 4.506372909541466 266.73185329874343
C 24.675187302190402 7.795908886823988 264.9502562722176
C 21.932079324729482 7.216668711911724 262.36637137970723
C 19.39169211537954 6.58407329603242 265.121256795722
C 20.646903761796654 9.61652032953741 267.0444712301563
C 20.139090108958165 11.698508095429814 263.8978593903023
C 16.642892738892265 10.275976030594514 263.4543933688379
C 15.890529433450679 11.260315453048802 267.0664991399335
C 16.877959306116914 14.896715126721945 266.5723374153091
C 19.996387080286475 14.7600057571864 268.7190230111616
C 22.613185828401214 17.45446306985371 268.10424131878784
C 25.618133846794883 15.3968534218254 267.0035256877658
C 28.62283256537997 17.54420407646863 267.87702278861326
C 31.102476129124053 15.805712249546563 265.5605700577694
C 31.802887715918942 12.630533734292877 263.62552787344396
C 32.20177592338464 9.36879453389766 265.4637157563133
C 35.47257885989788 7.93804586635737 266.7264286675625
C 36.22410720180321 4.6280233865388745 264.9814949926483
C 39.183294003080896 2.754643971213912 266.47253486245427
C 40.858311082242764 0.07371406677783421 264.3597988175156
C 42.647547741364306 -2.721885645295742 266.1694992582374
C 44.085467279900065 -2.0840410364977853 269.6107961882408
C 42.935760541876256 1.243872566734556 271.106398628909
C 46.11273019726608 1.5721296512469964 273.17106492176947
C 48.07449145843021 1.8048538529798845 269.895738577781
C 45.794055962739634 4.658409952562705 268.71847629643855
C 45.68573688297873 6.777087508481338 271.88661312931123
C 46.59731685600587 10.040857329642819 270.1276396872796
C 43.34242294620316 9.86661629588927 268.15953478875804
C 41.188444084798704 9.058316570601416 271.1992373166688
C 42.61841970322573 12.042424674139511 273.07151701296783
C 42.38992568922537 14.193358807325518 269.94714485129884
C 38.74337460977472 13.238862725086712 269.45849248367415
C 37.94106470488876 13.926998384040708 273.11625006097955
C 39.53218001739567 17.35421191823004 272.6824676840986
C 37.21940910261503 18.167344037964046 269.77697798159744
C 34.140235462309825 16.886723026879665 271.62449073084764
C 35.20618703838154 18.98594541551173 274.6259036992938
C 34.08209238001171 22.173128344251307 272.8858961083049
C 30.433618736498648 21.091131105265088 272.83690579350184
C 29.834538618856644 23.390256722755716 275.8320488545142
C 31.677620164256226 26.749074223443877 275.70914292276785
C 34.73154094571521 27.199246640352573 277.92236647143477
C 33.18864678474244 30.162816804548523 279.7529352488822
C 30.161625613273188 28.13367089717594 280.8462646139142
C 32.272564960745285 25.26038436482888 282.16233365358977
C 34.75014867166963 27.65021822850157 283.7887570743643
C 31.96458799248648 29.58247872626937 285.5090309276526
C 30.6042610258194 26.290825043893562 286.8695079086368
C 33.881596995851275 25.004989364463096 288.2985905197234
C 34.55882819473322 28.432125175440113 289.7975681146243
C 31.112463103317452 28.316803108541787 291.3949450427642
C 31.60983655434014 24.696024007931623 292.4799347107606
C 35.05200999192908 25.45523436060393 293.919516675528
C 33.79966819683773 28.397723641664456 295.9821564191258
C 30.968029153113008 26.45004429984318 297.610182824814
C 33.458265749568966 23.768275733438784 298.6398360268372
C 35.77687808506682 26.33696379013453 300.23907274912347
C 32.74801190831528 27.748114648792825 302.05676408455406
C 31.37635309192607 24.426351832363906 303.3310326396233
C 34.81815993301578 23.405995841837427 304.59234431262746
C 35.142689189267045 26.76486025296244 306.3455297002139
C 31.766046632670154 26.337929007450274 308.05842167430296
C 32.597854036977324 22.77876275556475 309.12454222998025
C 35.91792774296645 23.68193007045153 310.74250515629393
C 35.459965577677025 27.19560586050319 312.1186037349272
C 31.705974858571885 26.952369997920677 312.6704644629297
C 31.840244328575913 24.94186384249072 315.90544457495554
C 34.36316970801581 27.335867879897116 317.46016922043276
C 32.08715454538249 30.24986544245552 316.5546424591562
C 29.19237023438676 28.46667250545568 318.2600458143174
C 31.373709045117174 28.16462673907118 321.36517529600934
C 32.03965265349452 31.90912010057814 321.2799539529474
C 28.296166230313176 32.500344455243436 320.9354267747308
C 27.748739086262713 30.415291733691692 324.07153438739016
C 30.315256673843116 32.622279232855014 325.82086968359533
C 28.86841258573174 36.064973662543665 325.0814455641522
C 25.132646999773787 35.61590898536419 325.6548085844519
C 25.143504662918367 33.19662553752822 328.5815136281914
C 27.76170487624666 31.35249087254527 330.60378597843936
C 29.82814681947713 28.361181943464075 329.50232485225047
C 29.385672646586094 24.72167845044973 330.47702179370924
C 31.985916669524705 22.278140249844125 331.7302167565351
C 31.258241610476958 20.28815616253096 328.56619247994786
C 31.66586999432374 23.1887741963783 326.13199689447504
C 35.067781694401546 24.0253589616411 327.64590473534196
C 36.14358224173593 20.439078100630418 326.8437112586886
C 34.965906914635134 20.15864874955305 323.22995094049975
C 36.62885970729429 23.54262840601734 322.6725899696622
C 40.03564602954313 21.840878661025606 322.8093200609581
C 39.00423665739209 19.72365105177501 319.809285346646
C 36.94541190418246 22.36669071107946 318.00323673815564
C 39.97238799373158 24.672806549374883 317.99684807943026
C 41.94229482307666 21.89204568791638 316.29293973209724
C 39.255214386962955 21.834357027501806 313.6040831667928
C 40.20897494649695 25.457964650423552 312.9430926519954
C 43.74729370094076 24.34115902769022 312.064957541715
C 42.861811620880715 21.583313808307903 309.60562549280564
C 40.82030674569623 24.10506726285856 307.6276862889433
C 44.16241985147542 25.71494199057061 306.7830918580937
C 45.54006377099863 22.27617322947945 305.8368937534814
C 42.8269710026274 21.08237324391153 303.45421623170523
C 42.50732782210707 24.404636740843742 301.61468807831193
C 45.89875889788705 23.9052529297146 299.8993007367581
C 44.63240768393199 20.38909526566921 299.1583045347362
C 41.44376674533634 21.825894399033086 297.6413814258474
C 43.41051647421191 24.241831751854733 295.45981131110733
C 45.486234030490074 21.359452071013084 294.0995766183043
C 42.5266261253459 19.168251899452358 293.14811510733585
C 40.43792308871486 21.81579490466596 291.35396497618314
C 42.8526670967465 24.427191239685232 289.9697726932102
C 44.20486136339576 22.63617783892643 286.90420998472086
C 46.46382403427419 25.60771567786586 286.1209479325589
C 48.11961815027165 25.485138244412543 289.5499799543701
C 49.124926227387554 21.857916831092933 288.9890424619576
C 50.936672915667856 22.81750596151478 285.7854239150394
C 52.65462967728906 25.798056289600293 287.4204200059302
C 53.767435201676136 23.35115621896596 290.12108340508587
C 55.18336397236164 20.901128535046617 287.5708595797085
C 56.886597544949396 23.876489953081713 285.88870114735056
C 59.2395740525848 23.871689105938014 288.88622218957545
C 59.3795504961914 20.057566085787247 288.6291758405225
439
Mode 7 - Frame 12
C 49.17703246647343 36.02535700171029 337.39846108619474
C 50.604963477261556 33.8412909803922 338.73607375153426
C 50.447164068582794 30.602884549351558 336.7856660027821
C 50.21723002954803 32.97854439231085 333.8211414444142
C 47.47520747682203 33.90053373237853 331.3684553148883
C 48.995502449526356 32.16682316146349 328.3483357513257
C 47.88139841600199 31.348559799434497 324.8197932349053
C 46.969180197753644 27.672805912562126 324.3400524312295
C 46.67585618717031 27.165228620916952 328.1212626776972
C 43.32624636893969 25.374979273653903 328.0926415721103
C 41.54658834918917 23.321119394349644 330.76674905027807
C 43.12497770489818 20.076610907039143 329.44831688049226
C 40.952997529154906 17.416006611838608 331.0542269767342
C 43.228815608006094 14.367897188971881 330.748914683483
C 41.85403677410144 10.856869125895173 330.2850266021002
C 45.35321631245155 9.427420770022383 329.7159734217149
C 48.91379778226212 10.600063538073991 330.3706397333586
C 51.72228350692135 11.017916820623803 329.3628491884128
C 51.289464773538626 9.243705640941645 326.02360358894225
C 48.54403563334564 11.74289800773995 325.23901756079624
C 50.77825683731087 14.61809092372315 326.33506112451937
C 53.71058501848567 13.21300161556292 324.3545935080411
C 51.86457991174298 11.817315274799585 321.3297539560481
C 49.369304169996525 14.67673983891373 320.9633870764349
C 52.24210044601918 17.148703519950033 321.26658168090876
C 54.31067891262305 15.651070549969027 318.43974254511386
C 51.145257288166164 15.001923437882429 316.4266802208105
C 49.81083401508278 18.550010170674014 316.76674135710266
C 53.22155812486995 20.11985469103221 316.14529446286474
C 53.759732918217054 18.006856813594815 313.018949715287
C 50.287075212641156 18.89426051632653 311.7395534162049
C 51.01424304038675 22.583918627117455 312.26679128071686
C 54.404277952498205 22.625003980386083 310.5457528556245
C 52.9408245826129 20.66090169013224 307.6287712326198
C 50.34293482894485 23.408993999284515 307.16668949472046
C 52.901648399238205 26.224982595583388 307.2567778008989
C 54.96170277733844 24.514430667478052 304.55639480595784
C 52.05406168426323 23.501725541898935 302.326942330663
C 50.54255435943292 26.995249795363268 302.4864097147735
C 54.033844297717295 28.384942290539296 301.92509886550437
C 54.11713866384121 26.111357813092138 298.8704417907432
C 50.91317609833987 27.679257847441704 297.52131861323494
C 52.34529496612091 31.155928967283455 298.11299283775674
C 55.436037655574125 30.11155754269636 296.14099043286967
C 53.92906179745581 28.83005334268763 292.88247154836495
C 51.73516364283527 31.93650571404776 292.6120714390661
C 54.456549160656515 34.54761689449618 293.12078840156215
C 56.82652244393075 32.35963788916261 291.0856349448206
C 54.76941106979572 32.23412522359024 287.87743935612525
C 53.534050964326475 35.305642082378284 286.01271211414803
C 50.65477634399341 33.48528364201039 284.3036212374729
C 48.94767796472596 33.381678618298345 287.73290169779034
C 49.92571147687051 36.60275357980812 289.53672037967596
C 48.21926126053617 38.484298187343654 286.68564889778537
C 44.95444857951584 36.553002432954884 287.1511929435658
C 42.397110061485634 38.11765044286275 289.5396981464343
C 41.28557812719556 34.62052482492368 290.5873231378903
C 44.71152403005546 33.858789133338135 292.0904602353965
C 44.67520150457807 37.077346251154076 294.08791516091253
C 41.855721533824465 35.20096223666614 295.85480888610925
C 43.724832099063526 31.925250720279703 296.4371070971092
C 46.93676254131733 33.68724528424903 297.43427893010977
C 44.946968861493794 35.80805555128643 299.88141269268624
C 43.414884822238086 32.67926131662525 301.42343648551054
C 46.737116293261856 30.835286464645574 301.5292044035042
C 48.53702627187911 33.71402061549608 303.2551881023256
C 45.60153476755254 33.89358816461156 305.67168922193747
C 45.87518357578765 30.148941619500857 306.30652044501534
C 49.63077731954626 30.621144906725274 306.7187014131453
C 49.32588111827918 33.55957094377267 309.1341184687524
C 47.29257240212244 31.327342443864776 311.438063498555
C 49.28730405301218 28.12457911736682 311.0028352233223
C 52.469265690102766 30.083645354647714 311.7637429851443
C 50.96148232536349 31.497605999235482 314.9618871180579
C 49.85060446899261 27.9860716588603 315.8940519703734
C 53.30684394251864 26.42271775471609 315.614811655913
C 54.936719587148644 29.462215603586227 317.2233004764954
C 52.62201906255032 29.54546861685668 320.2446846537226
C 52.713655566394046 25.745649144806613 320.5151649771534
C 56.51653221247081 25.537213286876778 320.6462122504504
C 56.69702941482714 28.714140820692336 322.7553230043879
C 54.50362076305486 27.257244337576253 325.53156676283714
C 54.42264509179815 23.447754393908575 325.30377291237687
C 58.22404891495966 23.25178011562371 324.89090296628433
C 59.70528089944345 26.345080168456136 326.556305327943
C 56.794503292053165 27.037671143488737 328.9487163759459
C 57.38115198897354 30.774819188976046 328.5537949380412
C 54.85671433880999 33.29152897997771 329.8603786572699
C 52.676116047522655 35.66208570632547 327.8541820068779
C 52.15601266643349 39.27121643404369 328.88947640662496
C 48.986340218203765 41.13613212676087 327.89784146122383
C 50.25298108905102 42.41543568018509 324.54272916476185
C 52.12406238022446 39.256206335430484 323.52034511484203
C 48.94623568183886 37.277284880550525 324.2201638289232
C 46.58151209614827 39.51490353785652 322.2415302601088
C 49.02381489843284 39.66511270455678 319.32475152452577
C 48.92299023399081 35.86982310752089 319.0413390996461
C 45.13559836787532 35.79296337837033 319.39252923403177
C 44.73251402151017 38.76356787846565 317.0590503881407
C 46.82667768999433 37.00897827860028 314.43262259371005
C 44.486686034855026 34.01771875690212 314.5258388297946
C 41.526592804001254 36.40356864932798 314.5637175660709
C 42.99498241422471 38.22579017890527 311.55516014591865
C 43.546036957804404 34.93470627978784 309.71512106067473
C 39.844826350267866 34.07114314761822 309.87589724341683
C 38.75151107134617 37.65192762398929 309.20896999333746
C 40.73570605499273 37.85138302498265 305.970397485867
C 39.430850332500185 34.39181958872578 305.05130231268816
C 35.83047665194876 35.59519970478403 305.3427342739552
C 36.83476287563828 38.892967447146376 303.74264333368814
C 38.28068184671549 36.97238784845424 300.79433413498805
C 35.10324531822232 34.92292636047007 300.32333664080085
C 33.23799892009556 38.23864525265058 300.3646673698894
C 35.339986585662935 39.719533680131576 297.5557705728591
C 34.90973933569811 36.50405784431419 295.5764658379603
C 31.128359290056814 36.85044379341289 295.8249181832629
C 31.437633252549933 40.36579432013064 294.3829707208685
C 33.53975666907531 39.099781118065074 291.47665599395657
C 30.902316485168217 36.47414521844829 290.70716299769987
C 28.136069335122226 39.06930761302404 290.98755248384987
C 29.930263729547608 41.14907581847062 288.3456233444763
C 30.388888060453073 38.06711759750712 286.15143118265905
C 26.658206261177135 37.32799831503846 286.4060335922162
C 25.321501930019917 40.861991844993064 285.9181374035073
C 27.989877791719024 42.12912893324061 283.4678122359124
C 29.125654728356302 39.033802838504364 281.54671633383134
C 30.132863308904636 41.05071136288042 278.48040560141516
C 32.40575154656658 43.60828425382597 280.1707484021947
C 33.45465723248165 41.47468864698356 283.16321814698233
C 37.03727638723989 41.054271658174414 281.93541252636084
C 37.59888899148484 44.82019100376767 281.7408112538555
C 35.87409296357026 45.59282361726026 285.0677952822686
C 37.65798057582694 43.12886518878998 287.37523142523213
C 41.33064683535047 43.71148285691139 286.55672191453846
C 44.64763337018079 43.03154838076608 288.259875136072
C 44.97014103216111 46.58482736943012 289.6716179721996
C 41.327671004882866 46.513947919478014 290.7841647442288
C 41.731362062070964 43.168086107144646 292.5496277373306
C 44.90719288340135 44.217959816889646 294.3792831037404
C 43.231211704092054 47.343074299661396 295.76308786664487
C 40.183427678983946 45.39282743240799 296.94026853278075
C 42.28652017131556 42.77735659208524 298.73125170553027
C 44.73452632306326 45.27913312220373 300.23035129897727
C 41.80863268021339 47.25986968788507 301.6392280273944
C 40.13321251085579 44.106907562107004 302.9093506325435
C 43.23133460031681 42.970480235195694 304.8025138019499
C 43.71063516171312 46.34781464222769 306.4808052456494
C 40.091061451452404 46.14286715858425 307.62317656548873
C 40.74499212422667 42.56509862256874 308.74570349259403
C 43.97578597589765 43.49247042388632 310.5447285781885
C 42.35307754641479 46.488604055512155 312.2302807712082
C 39.868129914409195 44.266853849025196 314.05788738726795
C 42.62046091169642 42.07893092530473 315.50110932869205
C 44.5839010667552 45.11560117098807 316.65984480206413
C 41.48715014848949 46.80206710979646 318.1811644897159
C 41.452931315638416 44.33004590648932 321.09963389880363
C 45.23363353982762 44.50545512711741 321.31429911550595
C 44.99966039634274 48.2815338800835 321.26539609251535
C 41.955473025768974 49.30476087742768 323.32499061084036
C 39.114000921200756 46.85480012530975 324.00943855628344
C 40.158592281506635 44.85948660713189 327.08416529520133
C 39.32696369305329 43.47521744479083 330.4826066830687
C 42.3273098061042 45.246096733081195 332.0036115797497
C 42.02321961375864 48.58396381315021 330.2173091716589
C 38.214094787146166 48.82151975751371 330.37001094789133
C 37.55772033126796 46.883687680032686 333.6101228558358
C 34.81582694959279 45.19519515252632 331.58467839273317
C 33.32150130523805 41.72144822470563 331.8607343016963
C 35.911570550961066 39.16324723715228 330.8295002733782
C 35.402982429511205 36.24865946505273 328.4492045543412
C 35.179174541447956 32.809276481283845 330.0488367144222
C 37.262269847298896 31.37594740639138 327.17643481029125
C 39.98407368458288 33.88130697844982 326.31827401668
C 41.99432657991542 35.90954348814001 328.85078447672987
C 42.128852187509146 39.70452868631809 328.50731732638474
C 39.23968652577429 39.66540450014329 325.9860907683176
C 36.26344979438167 42.00455547578092 326.30250487601677
C 32.84169453407791 40.39443353952188 326.0016050733617
C 31.357880468020042 43.30878319775399 324.0639125937324
C 34.21870595187726 43.16562571269581 321.56752780634775
C 33.24670645991742 39.58690861140371 320.70581061955033
C 29.648405588074763 40.614809609229276 320.0337351278621
C 30.99137214039932 43.118860646721345 317.5030892806932
C 33.39718440858408 40.5347800510894 316.0735333630715
C 30.85628275357818 37.69491720595186 316.00711073622887
C 28.145004646633485 39.88731108709787 314.51410640665256
C 30.429299076563247 41.17705110870083 311.7581318775004
C 31.53752172652614 37.73731013022834 310.5697319570923
C 28.07886033125886 36.21896112052362 311.0941753803078
C 26.46354959782427 38.83873093664437 308.84547906675476
C 29.194177520887926 38.43343559206897 306.23504828742074
C 28.910872650454767 34.636062668918036 306.298162927275
C 25.109842908526762 34.762240081386544 306.1059648697828
C 25.454392251421126 36.8752981234257 302.96541546846305
C 28.230496200047448 34.70243934397185 301.5087611002026
C 26.103053156437934 31.585045505548177 301.99018717067685
C 23.183633784713617 33.222278597996656 300.18347876170236
C 25.45729306966921 34.63069786143634 297.47909168396865
C 27.293885479922338 31.37072205323527 296.7853897584791
C 23.95093788952523 29.594821137907086 296.34133261977775
C 22.756149988407465 32.28208300574276 293.91900943031675
C 26.10134953755706 32.16991316492059 292.08386341549766
C 25.912067675128384 28.391028004711973 291.69013300107184
C 22.241358191618392 28.577150924238047 290.66276639155984
C 22.99368364416013 31.21869340886496 288.03018989414556
C 25.903949940602246 29.0856808471118 286.81860472559816
C 23.482037296993322 26.248613202688137 286.0299813932619
C 20.8913234482076 28.476652318035782 284.33278778821864
C 22.838516201445678 28.61496413563605 281.06049600299775
C 24.452327886693713 25.175427413715674 281.1679092318835
C 25.21227196800266 22.338724392848945 283.49105549247236
C 28.63294236150549 20.814180860955826 282.91508166903657
C 27.8585213378602 17.090135194817112 283.1810649054364
C 28.97814700143861 14.51831501738867 280.6277965727074
C 27.54071233894743 11.010308094187158 280.384785726362
C 29.46361274067363 8.119627789131334 278.84850047353393
C 27.73033280975037 4.79576510588121 278.158638248191
C 29.9052549924673 2.034469117903814 276.7264413977102
C 29.37619490878609 -1.5355129736674598 275.6218298550013
C 32.51191845074957 -3.6859810234990347 275.6765488573642
C 33.29154002202379 -7.39170062933287 276.08552506850987
C 37.09615833847619 -7.491931310749816 275.85471944339054
C 37.5601289263643 -3.9826329300937138 277.26667258944633
C 38.77650178414712 -2.0655267353940787 274.20763822700735
C 35.76975991474384 0.25132931349662374 274.2330712385138
C 35.95066955805092 0.4593489154781999 278.03983550449317
C 39.57245812535602 1.600051985774033 277.81129356683243
C 38.549118708963285 4.051059702341981 275.08237922474876
C 35.77309347894186 5.498813317292812 277.2438864568379
C 38.01427575452194 5.7350834335792396 280.31867858597855
C 40.57901887304019 7.632443118957182 278.2364522283796
C 37.93123451651239 10.07551820562335 276.99457953384103
C 36.65841269011487 10.315777193702582 280.5745281108493
C 39.88896014804125 11.761580106743503 281.9842410060668
C 40.37471549135514 14.317124952097094 279.18991609721
C 36.889010051775834 15.70332209059921 279.84613700601756
C 37.424707992252415 15.503046792947027 283.61133985757255
C 40.48083278765701 17.75010535215048 283.27273382108365
C 38.619634679918114 20.134357679022756 280.95588365422503
C 35.945349996607675 20.958761604331837 283.5414787706698
C 33.170463935569 18.40724578040001 282.9904705700144
C 31.5093587175228 16.450822511492024 285.7872117630749
C 32.01104737908236 13.113319668609245 284.03841291230987
C 29.715247969177526 10.142277935907304 284.7357150732222
C 30.874774418223858 6.892896436213889 283.11145536815917
C 28.54763726890144 3.8808137961333093 283.11390956185727
C 28.49762531306484 0.4323028706884805 281.5436133314279
C 25.549344876280568 -0.10632045299942068 279.19887252597556
C 24.569870665693823 -3.2780660323802477 281.08066173674763
C 23.76070847936537 -1.244329331153177 284.2189983061611
C 21.536545826766815 1.5533417091294273 282.8492990634698
C 17.845516940348748 1.9827277385865438 282.09600156942474
C 17.031653799803117 3.8085138828504603 278.8690421039443
C 14.093238617685943 5.833017671817307 280.1971581739044
C 15.241188873742137 9.389566916332047 280.8495121996622
C 18.8780810364338 8.28012520971903 280.8557635920675
C 20.284260045138634 11.43532955377201 279.24997197764975
C 18.399499597110832 13.836536364521864 281.5302926291746
C 20.59068246501436 16.172708075530224 283.55570028314355
C 23.51523577577098 15.815871760234845 281.13575206463213
C 24.2748019545636 18.25487579101571 278.3262943382307
C 26.945947300635325 16.025407790659113 276.7815493035948
C 26.379672413188665 12.315989491907056 276.1320479611108
C 28.951785140365924 9.984323315263737 274.57611822735726
C 27.777491893959958 6.545799334401432 273.48626562185746
C 30.44864273754507 3.938624955654593 272.7750918488464
C 29.879792213683917 0.4732968957058512 271.3731144887511
C 31.92870725449144 -2.2353776604095605 269.67675083146145
C 30.772648403980096 -4.1252960599131185 266.58553051263914
C 30.214422797967124 -7.896721762422075 266.60812192070017
C 28.934716735577137 -8.778582962954546 263.1520466636532
C 29.786553241536534 -12.481328814962314 262.8864505140006
C 28.290323001757613 -12.603643905645834 259.39850797720794
C 25.96220903273831 -9.59249222913224 259.76875664374626
C 26.259777339487016 -6.350308479007451 261.76074837143136
C 25.563602289889964 -6.447696197019337 265.48975514596043
C 26.058105918100534 -4.153705306375709 268.45977634320457
C 27.852257028224372 -5.3324780241796645 271.57158250054033
C 25.241049788378664 -7.2895479382300135 273.4699759621918
C 25.106706074759057 -5.090613803211939 276.56897684258485
C 24.25251131238831 -2.083296918974979 274.3842081129376
C 21.313994039958242 -3.5584971571040667 272.4542639515646
C 18.658879161466654 -2.9478640372580904 275.17483351684467
C 19.65147481495834 0.7240326133032373 275.2139855219967
C 19.762651206745748 0.8963112860316689 271.42492207483906
C 16.29099761950232 -0.6225683516498692 271.1062721985583
C 14.79868810493339 1.9625046466213292 273.4927283413331
C 17.012474193483623 4.895119427381793 272.5352681215691
C 14.028391424403136 7.174269672706717 271.8564152563451
C 13.256843485695704 7.1112913513933025 275.6055236415314
C 16.62716557232335 8.56600347870276 276.6326438963111
C 15.888120218070092 12.227519060533098 275.89989924882053
C 18.29331875181734 12.561242668662636 272.95615670258377
C 16.31606212694929 15.146712757327252 270.96902804640524
C 18.04794888951769 18.50970490026215 271.1259940857077
C 20.874083857721512 17.134834558862128 273.25520867762526
C 24.569178432772866 17.15632189099949 272.3466920262199
C 25.884048434657622 13.647103694033758 271.63422433719563
C 28.779172203769033 11.887707747526655 269.9349266250815
C 29.685806756933562 8.262322758801883 269.3367889260296
C 32.809593498834914 6.1321121600538415 269.54834650208096
C 33.54519255375204 2.449806490049638 269.1510595196793
C 36.19789453585536 -0.21541207772765364 268.65404023404267
C 36.24808552761816 -2.3965492181254535 265.559231823491
C 38.556147899115196 -3.9709453304666615 262.99964257877593
C 38.841690881632985 -3.0998641068792563 259.3211254252055
C 39.082336572954034 -6.713244914866434 258.1065671426452
C 35.31575776157237 -6.98354741004619 258.6274756550834
C 32.95054622760367 -5.754880417875114 255.95266729677277
C 31.37873267909263 -3.015495422897467 258.0924603561007
C 34.174305757180115 -1.381756777842293 260.07477473054144
C 32.62608899880144 -0.07175286183846269 263.301856977064
C 29.138075072342723 -0.5802911228904323 261.90029995257316
C 27.874246270947655 -0.1499334665832112 265.46246677786235
C 28.754345974784844 3.5516739795998173 265.6557216633113
C 27.14602630380413 4.026150904432207 262.23547806735286
C 23.90897891094177 2.481262219363127 263.49665189690336
C 23.956301358600957 4.514030056500658 266.71599564124057
C 24.679120226974312 7.805335496358621 264.9384955088495
C 21.937498221435256 7.229490442499911 262.3522869261292
C 19.39531044854312 6.594301762389385 265.10489667052786
C 20.649850678031157 9.624355714251875 267.0322474144891
C 20.144297694219702 11.709900005520312 263.88764499633334
C 16.648141585733168 10.288524457156873 263.4405133752063
C 15.89376366254524 11.269029896318436 267.05322420490137
C 16.882148951985748 14.905764129294925 266.56369554231367
C 19.999232955442956 14.76606720447623 268.7121193219432
C 22.616910004364428 17.460637969689383 268.1018912432319
C 25.62207794679949 15.40357388665721 267.0006980490522
C 28.626630593424665 17.549178779106168 267.8780633091285
C 31.10739395726959 15.812880341274168 265.56128711095033
C 31.80855572670028 12.639829715136111 263.6233269485788
C 32.20579484975732 9.376154480438258 265.4583396993349
C 35.475593699124765 7.943471757767584 266.7215307423291
C 36.22763875827481 4.635335489849671 264.97344734779824
C 39.1855321658923 2.7597357677345373 266.4642698256186
C 40.86138190224322 0.08088177860065496 264.3495970867072
C 42.6488966307239 -2.717101242628437 266.1572695831057
C 44.08474242102072 -2.0834052867540764 269.60017689324746
C 42.93476531762296 1.2430629798352268 271.0987892434192
C 46.110486975204516 1.5683395220781424 273.1658249262605
C 48.07438871564127 1.8042572352471262 269.892030205229
C 45.795298604900495 4.659578590699133 268.7164952110302
C 45.685373775561445 6.774769588035295 271.88690306423496
C 46.59871401354888 10.040259985089593 270.1321052086068
C 43.3450522664148 9.86878708115671 268.1617226136558
C 41.18897841657517 9.057623218544848 271.1991877039754
C 42.6183319613593 12.039409096097632 273.07559006635654
C 42.392240850599414 14.193701910021897 269.9533862769275
C 38.74580497812499 13.24035482184392 269.46131632352234
C 37.94126023481012 13.924699095676303 273.11933363789774
C 39.53318766814488 17.35207704599084 272.6901050177801
C 37.222459430777725 18.16852645600388 269.7838814632727
C 34.1418586926953 16.886362816175865 271.6281511648425
C 35.206147936712355 18.98219380209945 274.6324045963461
C 34.08353646581613 22.171010943731236 272.8942801046448
C 30.434952783833655 21.08964029831557 272.8423609681127
C 29.833798846074295 23.385603800701656 275.83914657664184
C 31.676863343843266 26.74425039720851 275.719147776247
C 34.73059162956042 27.191459972196697 277.9337879890024
C 33.18663005757324 30.15323848420594 279.7648650303644
C 30.15877708444014 28.12391402285369 280.85624402701626
C 32.269101940963694 25.24985116437232 282.17167146268986
C 34.74656362307621 27.638256361509235 283.7994697629044
C 31.96049298698026 29.57046240041433 285.5192682514128
C 30.599816261106607 26.278318204087334 286.8790183454389
C 33.8764548234966 24.991611944597494 288.30850179995866
C 34.55447391635702 28.419555591055207 289.8070659649477
C 31.108185149830533 28.305137082178923 291.40436409364906
C 31.605480528330208 24.68431180102125 292.49019214932855
C 35.047826764516394 25.444314405716536 293.9296524503303
C 33.79639265176248 28.38837385459462 295.9909041095386
C 30.96509626148131 26.44167276159271 297.620597450347
C 33.45549245273589 23.760692040098256 298.65157749444865
C 35.77460394603616 26.330281538408585 300.2486741590359
C 32.7463369633872 27.74265520057865 302.0662209660062
C 31.375024934054007 24.42188808391401 303.343151117823
C 34.81708121327837 23.402442743379012 304.60439763342686
C 35.142126995624004 26.76238078493018 306.3552446382624
C 31.766036883787454 26.336689507375315 308.06941353747555
C 32.59809360848477 22.77839423930415 309.1378085163454
C 35.918570019579406 23.682571860487613 310.7543157946842
C 35.46101805853475 27.197151656580765 312.1280941385795
C 31.707234456120787 26.954383216557908 312.681238323917
C 31.842492876186657 24.946282502618377 315.9176859921473
C 34.365851969424575 27.341330980609676 317.46995951927636
C 32.08963091971824 30.254701881952524 316.5630794826075
C 29.195428688221796 28.472803621328094 318.2706981397703
C 31.377741952854908 28.17306704891517 321.3753824385646
C 32.04369735029157 31.91745726978181 321.2872805718314
C 28.300103560318977 32.508425664623786 320.94349077465216
C 27.753601941397033 30.425683591069507 324.08124834555196
C 30.32063849448827 32.633928045178536 325.8282139195711
C 28.87355275499011 36.076059185677714 325.0867878959699
C 25.13794722007953 35.62742614356367 325.66153842284723
C 25.149670867435773 33.210292521726466 328.58997758464824
C 27.768456395560612 31.367649407876712 330.6128201689701
C 29.83459689057108 28.375568834853606 329.5129188428907
C 29.39243090373383 24.73679777132098 330.49039688088163
C 31.99304202583996 22.294208312985983 331.74459637001104
C 31.264462807929284 20.301921272823527 328.5822496240247
C 31.671332653000768 23.200737647001965 326.14579530085786
C 35.07368092664199 24.03845450459539 327.65804995281763
C 36.149314114011105 20.45160518874478 326.8581965499907
C 34.9705256271592 20.16854785643909 323.24501329543864
C 36.6332792319134 23.552113652007364 322.6845919341569
C 40.04011022497617 21.850520646399286 322.82158750866347
C 39.00774115027616 19.73104099424718 319.8234415639576
C 36.94825258973154 22.37260896401359 318.01593971892305
C 39.975233677926035 24.678700585510995 318.00691457195137
C 41.94453281446227 21.89663538892478 316.3044504624792
C 39.25663296636913 21.837000128474546 313.6164001388643
C 40.21023452566451 25.460062609762712 312.9524808441481
C 43.748277585357435 24.342589180335818 312.0741649226811
C 42.86206005976695 21.583039147580994 309.6169928601616
C 40.82003356145721 24.103380745679797 307.63778660488634
C 44.16191396476329 25.712654491651737 306.7912258746578
C 45.539214211523515 22.273210217685396 305.8469506975257
C 42.825513666243246 21.077905019229295 303.46566915792897
C 42.5053777762861 24.398859088743496 301.6239517924689
C 45.89630061883534 23.89830117443017 299.90801825657024
C 44.629604714737205 20.381758357292462 299.1695299436731
C 41.4406796549414 21.817554198585256 297.6523817032384
C 43.406854533949435 24.23204124974772 295.4688402056683
C 45.482003966264394 21.34869565918321 294.1099089185806
C 42.52189597712169 19.157119221020682 293.159798231236
C 40.432921801314905 21.803085308747487 291.3642160875549
C 42.8479283831672 24.414189730259217 289.97901871803657
C 44.19966392317476 22.621715732536114 286.91420081843415
C 46.458634397964616 25.592723018666828 286.12890298082647
C 48.11488966929195 25.471729700162285 289.55751019440316
C 49.11992428382632 21.844136460977698 288.9984411466853
C 50.9310967578966 22.801720917265406 285.79390662665213
C 52.64948067265345 25.783201480085452 287.42660390857736
C 53.762744967367524 23.337952973937348 290.12859201803025
C 55.17806145825499 20.886258622120813 287.5796693264575
C 56.881037143948895 23.860499198579618 285.89524438928953
C 59.23464573360544 23.85753822949069 288.89223839017524
C 59.37441804491271 20.04323187062801 288.6377104138313
439
Mode 7 - Frame 13
C 49.18749508811887 36.0489644471037 337.39801104492125
C 50.6160633854293 33.86615083472547 338.73697508958736
C 50.45758615437134 30.626021482130227 336.78946509953323
C 50.22639972498651 32.999013935056006 333.82294598669677
C 47.483460064037956 33.918850430536885 331.3704711976152
C 49.002740124879146 32.18258656383707 328.3513125166916
C 47.887436062416974 31.361324139214684 324.82386116012685
C 46.97497704108911 27.68518642670565 324.3474287204492
C 46.68298490485835 27.18086713436238 328.1291902437423
C 43.333254903505726 25.390694590617297 328.1029165780781
C 41.5544156024577 23.339255697908225 330.7794550973367
C 43.13237701119485 20.093671760824133 329.46331217179096
C 40.96100676580101 17.434485672765117 331.0723301429505
C 43.23718889798522 14.386409954142858 330.7695781880655
C 41.86264995916928 10.87477449842397 330.30996788978325
C 45.36177419642353 9.445156226069564 329.74093108992946
C 48.92248458118801 10.618833082970294 330.39292801906646
C 51.73051267547597 11.035807502303769 329.3835328666749
C 51.29640603549323 9.258273168619336 326.0462110260831
C 48.55049304174621 11.756482228050386 325.26026541386756
C 50.784954129135535 14.632847795548276 326.35259933966836
C 53.71656518792243 13.225937886185609 324.37227575761887
C 51.869329580983646 11.827382768016001 321.3495429127458
C 49.37383075444728 14.686368540325486 320.9814409290149
C 52.24668978118139 17.158651426558503 321.281187390544
C 54.31416601461553 15.658441258285594 318.4549147422146
C 51.14795020332885 15.007491349663203 316.44371972468605
C 49.81365730609747 18.555859385460064 316.7809898652579
C 53.22415837682509 20.125135759808778 316.1569084579956
C 53.7610472574578 18.009365063959216 313.0322099904356
C 50.28797610064661 18.89572036399052 311.7532437770112
C 51.01540025266829 22.58579180120309 312.2770201736954
C 54.4048083746277 22.625310772645925 310.55476151106814
C 52.94026257779366 20.65877584332881 307.6399303556537
C 50.34233886623879 23.406531701282148 307.17633370306464
C 52.901140662121044 26.22252381012956 307.2633146264092
C 54.960254235897054 24.509677739643795 304.5636656374987
C 52.05188655634092 23.495341695891522 302.33589262432895
C 50.54053549683811 26.989012487990987 302.49305991754335
C 54.03173612882747 28.37818366369442 301.92968868749404
C 54.11401576992612 26.10231506965949 298.8767740952361
C 50.90973365562289 27.66932184038323 297.5273808403619
C 52.34212392824465 31.146402279621014 298.1160752267743
C 55.432329837469766 30.100605169142874 296.14407356263644
C 53.924422488335615 28.816792125626936 292.88694657721663
C 51.730492963475285 31.92310515833357 292.61482159915107
C 54.45206775304743 34.53449011146177 293.12085357775146
C 56.82143322897876 32.34496454792911 291.08667144336795
C 54.76343210523985 32.21714564639798 287.87915213615156
C 53.527566882258895 35.287271230058906 286.01249276996475
C 50.64776081342852 33.4657911227145 284.3055860130088
C 48.94161679164964 33.36483660370509 287.7353961230015
C 49.920256018023814 36.58712054886495 289.5364984895589
C 48.213020421680916 38.466649297568445 286.6845249705234
C 44.948150042988495 36.53606067752435 287.15236558658455
C 42.39153183128674 38.10266521656841 289.54040715943705
C 41.28047176077948 34.60650234612701 290.5912278432997
C 44.70674234483961 33.845301279298326 292.09370667568317
C 44.67113519969188 37.065226886094216 294.088865347778
C 41.85211108700136 35.19019322825904 295.85794793559904
C 43.72118759612438 31.914700871934368 296.4420024019056
C 46.933447481727896 33.677313146883705 297.43696517915794
C 44.94451430639078 35.80002996489347 299.88313368553946
C 43.412764171054604 32.67240442391041 301.4279223143627
C 46.734924344769084 30.82842182588048 301.534069736151
C 48.53547808820198 33.70846993629807 303.2572862914095
C 45.6007540127815 33.89001879794556 305.6745571118894
C 45.87451099450404 30.14587941884684 306.3122124859705
C 49.63022987261606 30.618328108179256 306.7227976211485
C 49.32622575431529 33.55877904606411 309.135930087959
C 47.293628164964844 31.32846903805684 311.4423561959204
C 49.288134453997515 28.125324793499566 311.0090463433843
C 52.47041592585748 30.084986665069486 311.76721035162825
C 50.96379790666155 31.501731596468154 314.9646940523849
C 49.85319044611026 27.990977879285573 315.900196328379
C 53.30935615740993 26.427424965799677 315.62103003516813
C 54.939886142351675 29.46830955956919 317.2262881071543
C 52.62632544701801 29.554256804748395 320.24847800564294
C 52.71807391432678 25.754689745079173 320.5221985818784
C 56.52098855566824 25.54638813936425 320.65199922096895
C 56.7022566654789 28.725186103839512 322.7583036960438
C 54.50989794080205 27.270721881962192 325.5366285004729
C 54.428914775847396 23.461074831614432 325.31215935339077
C 58.230194214088606 23.264784612279254 324.8980172751496
C 59.71197077969115 26.35953233480867 326.56021551914193
C 56.80204872618385 27.05409740676231 328.9531159934244
C 57.388497612587074 30.790891833239986 328.55478215575016
C 54.86450278497076 33.3086150687962 329.86026202390457
C 52.68316472346892 35.67746022178764 327.8528938722641
C 52.16340120393778 39.28747473785212 328.88532542687994
C 48.99331984547982 41.15149234387983 327.8932700196934
C 50.258839261508896 42.42793023267287 324.53665222113796
C 52.12958749522242 39.26784747542307 323.5162345753677
C 48.952015435061185 37.28951786379255 324.2188812934519
C 46.586590672124125 39.52540587187428 322.23921080225506
C 49.02787615089163 39.67308646507237 319.32143985830965
C 48.92699747989059 35.87757805092915 319.0412346507525
C 45.13972631570651 35.800983134082756 319.3939063117273
C 44.73574389468997 38.769553327342095 317.058110812797
C 46.828933095412566 37.012681188687466 314.43243082345913
C 44.48893886990353 34.02150160441939 314.5289686560816
C 41.52887435585806 36.40739773272379 314.5659606889282
C 42.99621990413142 38.22708688080665 311.55541883633794
C 43.54664161070776 34.93448873269422 309.7178559363966
C 39.84549587414482 34.071099055533416 309.8805491686975
C 38.75196968860639 37.65133388054133 309.21113536397934
C 40.73518055884856 37.84818486336624 305.9718151444072
C 39.42997237795309 34.387870920907936 305.05582946922385
C 35.82971379784671 35.59144197255889 305.347436396811
C 36.83360384111282 38.88804918135574 303.74460130318556
C 38.2786237157057 36.96518396333004 300.79731139821547
C 35.10101362768166 34.915248585503214 300.3287772785246
C 33.23584312468495 38.23105406403402 300.36846604554654
C 35.337218552900055 39.71012874814234 297.55799736865606
C 34.90612340557231 36.493259387002674 295.5809426257211
C 31.124860420940152 36.83983447501093 295.8304877135626
C 31.433741979682626 40.35476901479637 294.3869839771669
C 33.534903326786015 39.08721978775067 291.48045817360907
C 30.89698269099084 36.46147173855589 290.7132731572581
C 28.130811667679772 39.05689213092342 290.99385069284114
C 29.924022130191673 41.136115696749215 288.35066765393225
C 30.38153010088358 38.05352857049514 286.1574587363443
C 26.651058308255806 37.31444602920869 286.4140317207798
C 25.3139548873952 40.84813353376406 285.9254875197112
C 27.9812909219412 42.11492037803224 283.4737224182256
C 29.115904493008124 39.01907868985642 281.5529640740312
C 30.121508735474496 41.03509133552319 278.48551697971675
C 32.39566347114712 43.59279578387 280.1739060818365
C 33.44583028069175 41.46030768970433 283.16653915492867
C 37.02795070616758 41.03847904961796 281.9368255521538
C 37.58999065368272 44.80411521995222 281.7405613728289
C 35.8672879266758 45.577785050083854 285.0684743756576
C 37.65213421128786 43.113505798530454 287.3751601420275
C 41.32459525069121 43.6947011404061 286.55434342361474
C 44.64220196962322 43.01536251829815 288.2565253952386
C 44.966093353885476 46.56947962822521 289.6658832962104
C 41.32407612189803 46.500103138111115 290.77980174391104
C 41.72755432083168 43.15512281632344 292.5472782547095
C 44.904053288869974 44.205959480651714 294.3751916648196
C 43.228682349026805 47.332270773801945 295.75720845457136
C 40.18083179970147 45.38302400105286 296.93648960027366
C 42.284203820994684 42.76862224303662 298.72871002929037
C 44.73282411447469 45.27139166084091 300.2253147998015
C 41.80720572996871 47.25344144227727 301.63330544324623
C 40.1319149804588 44.10139170542076 302.9061624483909
C 43.23061550071574 42.96632807618086 304.79927535863544
C 43.71043952028738 46.34509957118798 306.4747048677205
C 40.09104252328102 46.141059966420805 307.61819388742356
C 40.745302568400476 42.56414419013892 308.74333067596615
C 43.9767759541107 43.49294156130767 310.54049992498926
C 42.3545937521584 46.490574123406226 312.22403392270905
C 39.870246026435765 44.27028706740595 314.0542258545505
C 42.623091107087184 42.0835724759478 315.498303488831
C 44.58701172291987 45.121268346867076 316.65373224003594
C 41.49080011950703 46.80913085945755 318.1746454397518
C 41.45757274605156 44.33958033348934 321.0951263902952
C 45.23836669063728 44.515171524970256 321.30835463491917
C 45.00438527485449 48.29122602058228 321.2563415583202
C 41.96087165442787 49.31623120834169 323.316060972418
C 39.11954496670219 46.8668744037413 324.0034511253866
C 40.16518625038321 44.874121601229454 327.07949410688235
C 39.334675333546045 43.4927075104369 330.4793396306707
C 42.33553087402945 45.26485605330809 331.9978788727519
C 42.03085242599296 48.60122398368935 330.20889744726054
C 38.2217660482604 48.83891670531136 330.36261513674305
C 37.56643098651675 46.90380506924699 333.60454068474303
C 34.823888727864194 45.21361613947231 331.58138925244685
C 33.329663387927255 41.74009927908287 331.8608161416339
C 35.91940328640941 39.18103614449764 330.83088627148476
C 35.41007226224908 36.264473288915084 328.4531457856528
C 35.18682123677841 32.826440344318634 330.05566341178127
C 37.26896313180928 31.390748484179845 327.1836933197657
C 39.990519372506355 33.89538126488403 326.3228098889038
C 42.001618426325315 35.925701053304444 328.85300698988027
C 42.13598213716598 39.72038279242286 328.50629552917917
C 39.24594344740098 39.679140729820524 325.9860628100155
C 36.269779633607484 42.01855322049174 326.3014253100939
C 32.84794898900061 40.40816082453933 326.00295879115635
C 31.36346161530442 43.320862690182345 324.06332347987853
C 34.2234167984511 43.17559758536179 321.56613315917195
C 33.25110913171403 39.596177309509876 320.7077170619423
C 29.65259291561077 40.623492765232946 320.0359728413664
C 30.994645715556487 43.12537195420297 317.502753762315
C 33.39989977199112 40.54008411033363 316.07460115065567
C 30.858967824928158 37.70017901898968 316.0113888835267
C 28.147159343426313 39.89121950437177 314.5174618326644
C 30.430439028677437 41.17857545774393 311.75963134827583
C 31.538285080087583 37.73783064102837 310.5738187570011
C 28.079827406660577 36.2198971509882 311.1005897440878
C 26.463688329932953 38.83758173991324 308.8502597980964
C 29.193506804624185 38.430221238828445 306.23934567009377
C 28.910295839860996 34.63296318282934 306.30550518169156
C 25.109275258990845 34.75877793072084 306.11429218440446
C 25.452731339350716 36.86935394841776 302.9720638989913
C 28.228495251607185 34.69552761557786 301.51622712470754
C 26.101188673533365 31.57856310488416 302.0002941223063
C 23.181282439387974 33.214184309137075 300.1931878796707
C 25.454122615934764 34.62093434031054 297.48737993750143
C 27.290532552993824 31.360643062301328 296.79512629106824
C 23.94756881948037 29.58440360879025 296.35262684358986
C 22.752099551444132 32.27004472508476 293.9291711292283
C 26.096929617514025 32.15731116175934 292.0934540530612
C 25.907426555577523 28.378082610502815 291.70118069280517
C 22.23693560596617 28.563551631983348 290.67392700572873
C 22.988544776588892 31.204619003130716 288.04091204348
C 25.89903706714742 29.071610310627303 286.8295071175488
C 23.477405534463724 26.23456350192345 286.04015172809915
C 20.886603545869853 28.4628985873201 284.3433257752421
C 22.834352964167966 28.603886524019916 281.07112386520646
C 24.4488386903873 25.165131158851626 281.1765617022875
C 25.207567922509686 22.32648855323026 283.4978148021902
C 28.6280318225511 20.80211243910227 282.9212168793107
C 27.852508408723487 17.07777282067802 283.1816609499579
C 28.973173429641637 14.508669419232367 280.62601112228515
C 27.53525661456527 11.00128066508668 280.3774592875644
C 29.45849571267317 8.112041979598143 278.8387977514926
C 27.724993987303083 4.789369073443568 278.14334875978705
C 29.90024815745816 2.0293963283435423 276.7090564148141
C 29.37120658064979 -1.5390511878935407 275.59939692748907
C 32.50639924016224 -3.690299124690315 275.65358644568096
C 33.2849053012398 -7.396721133639302 276.05825772814705
C 37.08964118320645 -7.497496797543429 275.83016439663305
C 37.55331281227146 -3.9901384333366283 277.2470602672257
C 38.772342987661084 -2.0693687290481995 274.1914246902537
C 35.76613764589552 0.24814769600038175 274.21764838117036
C 35.94430295609273 0.45123296754808395 278.0247932758316
C 39.56646466682685 1.591411461040984 277.80042250267354
C 38.54569394322403 4.046113020263604 275.07394592271737
C 35.768444411344454 5.49178639827541 277.235296918045
C 38.00741441467083 5.723661057722897 280.31200118496196
C 40.5740847671336 7.6230660814661615 278.23415680572583
C 37.92777407992971 10.068274168106633 276.9934769719427
C 36.65243322647106 10.304449145329855 280.5728253515899
C 39.882196020759125 11.747848618426701 281.98663091812233
C 40.370490869139985 14.3066138426525 279.19579428834373
C 36.88469469956314 15.692750258889994 279.8513311166147
C 37.41802153356558 15.488247501868432 283.61708752276337
C 40.47441590799441 17.734980005474522 283.2829804126803
C 38.615126930812174 20.121926775678745 280.96670013105654
C 35.939697862002404 20.944666193146393 283.55180392245916
C 33.16477670567952 18.39423330729548 282.99648599167375
C 31.501547768675216 16.43516824832934 285.7899187007984
C 32.0033323281693 13.09905236341849 284.0370536545994
C 29.706547077971358 10.12740744856898 284.7287184151756
C 30.86621938937341 6.879683549217174 283.1011505028152
C 28.538508447967843 3.8679343820845906 283.09792046729825
C 28.48880819303917 0.4214289407717681 281.5230952068862
C 25.542154227371892 -0.11361418661150952 279.17550240014805
C 24.560669954278982 -3.287594260237729 281.05242824519297
C 23.74970961455696 -1.2577806959627607 284.19281727311164
C 21.52713715339174 1.5421477979709253 282.8251815197089
C 17.83673320110194 1.9732630330435421 282.06981953123045
C 17.02560006996505 3.8034273048678005 278.8446956901259
C 14.086696734951172 5.826851862743084 280.1733920449983
C 15.234970331343517 9.382307875026058 280.8311813535951
C 18.871587691607097 8.272078167254666 280.83858738570746
C 20.279559672105865 11.429067679350931 279.23796789567524
C 18.39380138281416 13.82774664227444 281.52003789041464
C 20.58400386918378 16.1610932985273 283.54994025387793
C 23.51023485985581 15.806670711681349 281.13182419547024
C 24.27209079155651 18.2487536838236 278.3258956583802
C 26.943807404962662 16.02066190930354 276.7801480348737
C 26.37730916958613 12.312296509093144 276.1255648040886
C 28.950003211313966 9.982067600207628 274.5683813538796
C 27.77580029016497 6.545245106493153 273.4732470372211
C 30.446904671166706 3.938432457881563 272.76058669801824
C 29.878316124212198 0.47505355614713685 271.3536740717532
C 31.92787337058816 -2.2318731328882313 269.65526629951967
C 30.773680756860156 -4.117504410755421 266.5607256417174
C 30.214600586751178 -7.888798989104855 266.5778985743213
C 28.937268132533227 -8.765774649747186 263.1196903697804
C 29.788538961064564 -12.468290765693762 262.8496575707519
C 28.294843785681497 -12.58558051001826 259.360465261074
C 25.967072939496376 -9.574475552645254 259.73310148010256
C 26.263850160788135 -6.335120565544038 261.7297160301854
C 25.564956865044845 -6.437317151981293 265.4581046814524
C 26.0577652750966 -4.147327693279588 268.4315075507649
C 27.849405694205757 -5.3304826742391445 271.5430653968953
C 25.23641417827389 -7.289379163232523 273.43702540907924
C 25.100328224986807 -5.094428978385553 276.5387981829192
C 24.2483495810297 -2.0841295173742607 274.35734641898017
C 21.3109156928445 -3.5561878955812976 272.4233808204984
C 18.65398808928025 -2.9485219528526945 275.14285089437925
C 19.647324325475754 0.7230985129346049 275.1875004084122
C 19.761218549990218 0.9002196420303176 271.3987645224312
C 16.289458261281336 -0.6174649962806722 271.07569454555875
C 14.796012009694893 1.9648133525636835 273.4644743343478
C 17.011096060050676 4.898162824479312 272.51239218164585
C 14.027962840235643 7.178806882953748 271.8344180510942
C 13.253811512048696 7.111201609834893 275.5828770150775
C 16.623726371811994 8.563846279157742 276.61427248526724
C 15.885927060664592 12.226435125519789 275.88576144061483
C 18.29322057042713 12.563324050316693 272.9440957219507
C 16.317891100461885 15.151729525989573 270.95885480397783
C 18.050428778813632 18.51410805246112 271.12137563304447
C 20.874674064592522 17.135809572633455 273.2508321450178
C 24.570355545381258 17.15745481585001 272.3449387780281
C 25.884957570771814 13.648919864124009 271.62891892627937
C 28.78096727160767 11.891185967841384 269.92940489665045
C 29.687406370790555 8.266535599269012 269.32730537363494
C 32.81064276350399 6.1354658139128615 269.53838318777196
C 33.545749280257425 2.453562314152697 269.13687234511747
C 36.198235039032575 -0.21158893075124266 268.6383189083519
C 36.25021531158827 -2.3886795916076977 265.5406793201216
C 38.55979856298116 -3.9601815294782385 262.98065553697387
C 38.848254479867094 -3.084197031576463 259.3035297493289
C 39.08900930474212 -6.6959204522802045 258.08421513534404
C 35.32199274127025 -6.966129773411486 258.60207164470916
C 32.95900249167413 -5.7333559709475574 255.92720425725273
C 31.38620745781931 -2.996553707797685 258.0695252044254
C 34.18067996249867 -1.3661227618461 260.0560550018699
C 32.63037384162455 -0.060124289833389924 263.28372795154223
C 29.143288259644535 -0.5660326103032185 261.87895429957626
C 27.876942579615157 -0.14009737476258705 265.4407617213333
C 28.75762760942988 3.5610149485933666 265.63948242664986
C 27.151870549291004 4.040273264518678 262.21869782611924
C 23.913605681130893 2.494426237540063 263.4755058569067
C 23.958980699263602 4.522953329003983 266.6975158863245
C 24.68370346924052 7.816320815839658 264.92479007823147
C 21.943813144242757 7.2444322735255335 262.33587357818027
C 19.399527080795124 6.6062215274246805 265.08583136381844
C 20.653284873136077 9.6334866965026 267.018002364889
C 20.150366364785988 11.723175592186292 263.8757416305853
C 16.654258340568774 10.303147792754409 263.4243382950911
C 15.897532678303035 11.279185291327066 267.03775423111256
C 16.88703136471457 14.916309403699652 266.5536247172285
C 20.002549402112592 14.773130924974211 268.70407409302146
C 22.621249980748217 17.46783390235309 268.0991525776817
C 25.626674212132915 15.411405594650127 266.9974028542601
C 28.631056633488765 17.554976059411004 267.87927588192514
C 31.11312495876415 15.821233692222652 265.56212273040063
C 31.815160955125855 12.650662806193647 263.62076209610365
C 32.21047831415802 9.384731409801331 265.45207469989487
C 35.479107048433406 7.949794831868791 266.7158229347355
C 36.23175426512415 4.643856665003084 264.96406900774684
C 39.188140413687385 2.7656695036452055 266.4546381473541
C 40.864960488865464 0.08923468682629082 264.33770847800037
C 42.65046856180953 -2.71152572879887 266.1430177051662
C 44.083897705183176 -2.0826644144373683 269.58780167522906
C 42.93360553092155 1.2421195260192903 271.08992162984583
C 46.10787283160149 1.5639226869858123 273.15971848634337
C 48.074268984113544 1.8035619655026522 269.88770864538407
C 45.796746720587 4.660940465638284 268.71418654893375
C 45.68495062756002 6.772068394510958 271.88724094051526
C 46.60034219406477 10.039563868343341 270.137309113388
C 43.34811635031863 9.871316810387562 268.16427220005613
C 41.18960110124794 9.056815219250268 271.19912988771756
C 42.61822971118855 12.035894885809368 273.08033660779046
C 42.394938828833325 14.194101745479246 269.96065973556574
C 38.74863721305381 13.242093639975122 269.4646070912986
C 37.941488096020066 13.922019615087951 273.12292709082124
C 39.534361936089766 17.34958916808387 272.69900520083826
C 37.226014137193225 18.169904389382793 269.7919264503335
C 34.14375032767926 16.885943043865662 271.63241685938783
C 35.20610236949896 18.977821851426004 274.63998043055983
C 34.08521933428134 22.16854342652934 272.9040504126206
C 30.436507418734358 21.087902983264506 272.84871816745414
C 29.832936750288145 23.380181508084526 275.84741792222724
C 31.675981381564508 26.738628941040012 275.73080695353923
C 34.7294853419593 27.182385761891197 277.94709807880486
C 33.184279860275005 30.142076368212017 279.77876742660123
C 30.155457545302863 28.112543828599602 280.867873557311
C 32.265066303491906 25.237576276805587 282.18255329839553
C 34.74238577906888 27.624316574354832 283.81195381729117
C 31.955720863599403 29.556459149508385 285.53119833844187
C 30.594636545090083 26.263743331704553 286.8901013532044
C 33.87046238200053 24.976022539889925 288.32005193147205
C 34.54939964878539 28.404907599144146 289.8181343050334
C 31.10319982763105 28.291542053531625 291.4153406046416
C 31.60040422414989 24.67066295577463 292.50214567719155
C 35.04295183154909 25.431588813050816 293.9414641970652
C 33.79257548833868 28.377478060336408 296.0010982491762
C 30.961678409977107 26.43191697167786 297.63273415637434
C 33.452260585369885 23.751854366925752 298.6652604387155
C 35.77195377327741 26.322494362139906 300.25986318250926
C 32.744385062750986 27.736293020984537 302.0772415629307
C 31.37347716245148 24.416686245159056 303.3572734121812
C 34.81582412493687 23.398302132529498 304.6184439964699
C 35.141471842065734 26.75949133158247 306.36656596199055
C 31.766025522906258 26.335245053325302 308.08222292861444
C 32.598372793650775 22.777964788095655 309.15326841139165
C 35.91931849799709 23.683319771871894 310.76807934726537
C 35.462244569341976 27.198953053329227 312.1391538006713
C 31.708702330804826 26.95672932518094 312.69379366574526
C 31.84511322592975 24.951431797601064 315.9319515537215
C 34.36897774846514 27.347697416650554 317.4813686648675
C 32.092516767820136 30.260338037012314 316.5729115858406
C 29.198992863906852 28.479948530257047 318.283111849905
C 31.38244171046912 28.18290298195286 321.38727735386226
C 32.048410846311135 31.92717300765483 321.29581866273895
C 28.30469193621989 32.51784311917203 320.9528881741207
C 27.759268879975984 30.437793764178643 324.0925685273671
C 30.32691021062963 32.64750301340845 325.83677254059404
C 28.879542862173654 36.088977723652 325.09301359372216
C 25.14412384309171 35.64084768837997 325.66938105434235
C 25.15685666699184 33.22621937084528 328.5998410743166
C 27.77632429296038 31.385314439282617 330.6233481821298
C 29.84211349464619 28.392334629349747 329.5252645724273
C 29.400306653082527 24.75441710407225 330.5059835671802
C 32.00134557498472 22.312933264561234 331.761353683175
C 31.271712693619083 20.317962473395166 328.6009618510444
C 31.677698573914597 23.21467927964451 326.1618753030992
C 35.08055560948698 24.05371542344453 327.672203407848
C 36.15599376356442 20.466203657536532 326.87507701503426
C 34.97590805362775 20.18008380171407 323.2625662428194
C 36.63842953433304 23.563167303606466 322.69857844902106
C 40.045312584623886 21.861756954572677 322.83588340495214
C 39.01182511851618 19.739652879432946 319.83993854192613
C 36.951562988681154 22.379505812664434 318.0307431645924
C 39.978549902057665 24.68556921306474 318.01864558043235
C 41.947140862485945 21.901984006761815 316.3178645166247
C 39.25828611089887 21.840080271817662 313.63075374847836
C 40.21170237892781 25.462507471143063 312.9634213938513
C 43.74942415715613 24.344255811764732 312.0848947636833
C 42.8623495785517 21.582719071118415 309.6302398458996
C 40.819715205622934 24.101415359296613 307.64955702956405
C 44.1613244286068 25.70998874991883 306.80070486817004
C 45.53822417558132 22.2697572655859 305.858670578669
C 42.823815356186756 21.07269796408746 303.4790158498757
C 42.50310528623893 24.392126089573615 301.634747281475
C 45.893435858111204 23.890199931616106 299.9181772368342
C 44.626338268621346 20.373208275502662 299.1826114978655
C 41.43708210758031 21.807834928245406 297.6652008999047
C 43.40258708407194 24.220631867283092 295.4793620471585
C 45.47707445191742 21.336160651767596 294.12194968669473
C 42.51638368882282 19.144145730519952 293.1734131845347
C 40.427093540400605 21.788274154097838 291.37616224200633
C 42.84240611321356 24.39903839358236 289.98979359274364
C 44.19360707515306 22.60486228607876 286.9258436577625
C 46.4525866442477 25.57525129136481 286.1381734132534
C 48.109379323920024 25.45610402458683 289.56628557565006
C 49.1140952582531 21.82807747733924 289.0093939239332
C 50.92459857057178 22.78332578235878 285.8037919726812
C 52.64348026914425 25.765890396206256 287.4338103326866
C 53.75727919283515 23.322566544246705 290.1373421961033
C 55.17188216215704 20.868929937449508 287.5899357835787
C 56.8745573188104 23.841864338792234 285.90286957020714
C 59.22890250659537 23.841047475509693 288.8992493823467
C 59.368436931893214 20.02652746248894 288.64765619699824
439
Mode 7 - Frame 14
C 49.1989849872026 36.0748898006515 337.3975168161331
C 50.62825314331293 33.893451565575255 338.7379649259421
C 50.46903153756596 30.651430125560406 336.79363721238985
C 50.23646975129416 33.021493289504825 333.824927708814
C 47.492522935419906 33.93896556233832 331.37268501073794
C 49.010688434798254 32.19989770330349 328.35458155716816
C 47.894066517991334 31.375341751713236 324.82832849650384
C 46.98134305022007 27.698782527466467 324.3555292541032
C 46.69081355905303 27.19804112262236 328.13789618159655
C 43.340951574341915 25.407952923384865 328.11420044035043
C 41.563011378278134 23.359172722981064 330.79340869361545
C 43.14050282186825 20.11240774258041 329.47977978283456
C 40.96980239312273 17.454779108999634 331.0922107770755
C 43.24638432338807 14.406740403888973 330.7922705485861
C 41.872108833873234 10.894437918395008 330.3373580495547
C 45.371172340267435 9.464633046229144 329.76833923856253
C 48.932024297561355 10.639445524480113 330.4174046906132
C 51.73954982882432 11.055454788998063 329.4062473816374
C 51.30402882852492 9.274271015869122 326.0710381850966
C 48.55758447383457 11.771400221435538 325.2835994974089
C 50.79230899771508 14.649053577789868 326.37185955273924
C 53.72313252311436 13.240144310637481 324.39169414720675
C 51.87454559873768 11.838438742799639 321.3712748574853
C 49.37880178372615 14.696942640324279 321.00126740762096
C 52.2517297223799 17.169576073066718 321.29722716866485
C 54.31799549936094 15.66653566307274 318.47157662863975
C 51.1509075236362 15.01360594948686 316.462432260282
C 49.81675780327132 18.562282908157176 316.796637369903
C 53.22701393574419 20.130935352812642 316.16966277871313
C 53.76249064571646 18.012119588068018 313.04677223195046
C 50.28896544276555 18.897323547485563 311.76827833234694
C 51.016671086383205 22.587848893769326 312.28825339535297
C 54.40539087650401 22.62564768744842 310.5646546855931
C 52.939645392266314 20.65644126925488 307.652185142443
C 50.341684388653505 23.403827641389704 307.18692483255126
C 52.90058307259568 26.219823607666886 307.2704932732137
C 54.958663468731416 24.504458143349627 304.57165035906183
C 52.0494978624582 23.488331048954556 302.34572170679763
C 50.53831841126774 26.982162767654124 302.50036307360693
C 54.029420968381416 28.37076143788679 301.9347291633194
C 54.11058625319985 26.092384460200204 298.8837281400306
C 50.905953215044995 27.658410261787935 297.534038290117
C 52.33864154051971 31.13594020963961 298.1194602616106
C 55.42825796549699 30.08857743162914 296.1474594109527
C 53.9193276664625 28.802228849717867 292.8918609888856
C 51.72536369126061 31.908388862739624 292.6178417850004
C 54.44714633631973 34.52007446904723 293.1209251532957
C 56.81584432705769 32.32885049776965 291.0878097110138
C 54.7568660932306 32.19849892141501 287.8810330862921
C 53.520446157536945 35.26709662694462 286.01225188936945
C 50.64005645968803 33.444384721222875 284.30774370095685
C 48.93496049943762 33.34634094796977 287.7381354645279
C 49.91426491237857 36.56995258140929 289.5362548130561
C 48.20616682312076 38.44726754323105 286.6832906899335
C 44.94123308168311 36.517455487850604 287.15365336611086
C 42.38540589992621 38.0862086587664 289.5411857872157
C 41.27486402336972 34.591103063639565 290.5955159340504
C 44.70149116760679 33.83048911395151 292.0972718692397
C 44.66666964274361 37.05191757546294 294.08990882918874
C 41.84814614675499 35.17836685968503 295.86139519414263
C 43.717185255946156 31.9031151817561 296.44737835451105
C 46.929806931449974 33.666405817929196 297.43991517883524
C 44.94181874963791 35.79121638251729 299.8850236548872
C 43.410435302735 32.66487428395206 301.43284858643534
C 46.73251717878027 30.820883179322276 301.5394127737773
C 48.5337778953807 33.70237426104645 303.2595904921778
C 45.59989659923522 33.88609897133088 305.67770658696816
C 45.87377237551005 30.1425165545781 306.31846340265014
C 49.629628674350954 30.615234740940174 306.7272960172654
C 49.32660422860306 33.55790939550574 309.13791958185146
C 47.29478758837962 31.329706247430725 311.4470703738003
C 49.289046388295034 28.12614368419491 311.0158673051975
C 52.47167909805198 30.086459672687305 311.7710181631249
C 50.96634084440091 31.5062622674099 314.967776586882
C 49.85603032861023 27.99636581927607 315.90694397307186
C 53.31211503530457 26.43259435662246 315.62785896892177
C 54.943363607270015 29.475001853493 317.2295690797377
C 52.63105465587467 29.56390786501097 320.25264380960976
C 52.72292607983408 25.764618000951188 320.52992278439893
C 56.5258824470232 25.556463829068186 320.65835438791584
C 56.7079971562 28.737315873319183 322.761577048315
C 54.516791446205374 27.285522725396916 325.54218722720447
C 54.43580005178051 23.475703142775632 325.32136922106895
C 58.23694289230938 23.27906596156918 324.90583010578445
C 59.719317508984545 26.37540349392721 326.564509634307
C 56.81033501232154 27.07213649043866 328.9579475894189
C 57.39656446971779 30.80854257765754 328.55586630389513
C 54.87305594338926 33.32737876329963 329.86013393883724
C 52.690905476985684 35.69434429129794 327.851479261546
C 52.17151518847985 39.30532937088407 328.88076688123186
C 49.00098477075013 41.168360711157355 327.88824972902125
C 50.26527262139107 42.44165156868653 324.5299786099397
C 52.13565509624096 39.2806316062334 323.51172044063736
C 48.958362676078195 37.302951948260755 324.2174728316308
C 46.59216789047618 39.536939382508315 322.2366636073386
C 49.03233615933755 39.68184313302298 319.317803034585
C 48.93139817911803 35.8860944171116 319.0411199464949
C 45.144259568041406 35.809790313290286 319.3954185984455
C 44.73929089449047 38.77612646033798 317.05707898480523
C 46.83140994887498 37.01674767074709 314.43222022415574
C 44.49141290062324 34.02565587260336 314.53240578583785
C 41.53137992295943 36.41160277647782 314.56842405386055
C 42.99757889756797 38.22851089999548 311.555702926398
C 43.54730563174146 34.93424982563667 309.7208593371804
C 39.84623113553923 34.071050634246475 309.88565784545466
C 38.75247333541848 37.65068184011305 309.21351334255843
C 40.734603466617756 37.844672688743934 305.97337199641936
C 39.42900822102493 34.383534551279006 305.0608011267581
C 35.828876042555045 35.587315285623845 305.3526001998159
C 36.83233100623611 38.88264801332 303.7467515168411
C 38.276363506132526 36.95727276134905 300.8005809854364
C 35.098562817553244 34.90681696458197 300.334752107828
C 33.233475661485706 38.2227175309847 300.37263769596376
C 35.334178739535524 39.6998003884723 297.5604428034479
C 34.902152443642564 36.48140067806969 295.5858589689985
C 31.12101801370992 36.82818347568048 295.83660409082023
C 31.429468640354518 40.342661184660564 294.39139127692675
C 33.529573456796214 39.073425117297994 291.4846336720631
C 30.89112519571783 36.44755390706604 290.7199832457128
C 28.125037773681044 39.043257628860154 291.0007672944511
C 29.917167696460716 41.12188307936725 288.35620724128995
C 30.373449696585247 38.03860529846019 286.1640781082295
C 26.643208530207385 37.29956310580624 286.42281514936667
C 25.305666834832742 40.8329145377143 285.9335593105394
C 27.971860946306432 42.099316749132896 283.4802128945752
C 29.105196926206073 39.002908843732584 281.5598252515478
C 30.109039307899625 41.0179376484167 278.4911302211064
C 32.38458489328712 43.57578657119023 280.1773737997424
C 33.436136650479376 41.44451473135552 283.1701862376058
C 37.0177093787031 41.021135836345834 281.93837731655026
C 37.58021862838886 44.78646102772482 281.7402869571159
C 35.859814734025996 45.56126991410014 285.0692201461511
C 37.64571381869056 43.09663833929796 287.3750818598478
C 41.317949488339494 43.67627170315493 286.55173139943844
C 44.63623728444156 42.99758743929386 288.2528467585224
C 44.9616482524103 46.55262496181524 289.6595855583558
C 41.32012827363272 46.48489900035934 290.77501036035034
C 41.723372714723865 43.140886718682125 292.54469808702976
C 44.90060543176954 44.19278088574337 294.37069850603973
C 43.225904648042146 47.32040649866326 295.75075176965186
C 40.17798104278797 45.372258015168846 296.932339631497
C 42.28166003872564 42.75903030780932 298.7259187973707
C 44.730954773733444 45.26289010044489 300.2197837895799
C 41.805638673941594 47.24638203634423 301.6268013473817
C 40.13049005142813 44.09533427174562 302.9026612308743
C 43.22982579598137 42.961768235475844 304.7957189472376
C 43.71022466971603 46.34211791961837 306.46800552130895
C 40.091021736638204 46.13907533424289 307.61272198276373
C 40.74564349368183 42.56309604631106 308.7407248832191
C 43.977863133801264 43.49345895757883 310.53585607948236
C 42.35625882727768 46.492737623345164 312.21717372444533
C 39.872569909919186 44.27405737795182 314.0502048125172
C 42.62597954945226 42.088669759428754 315.49522215626064
C 44.59042780032641 45.12749195708123 316.6470195132236
C 41.494808464649495 46.816888166708914 318.167486313794
C 41.462669897497776 44.35005090269884 321.0901763099391
C 45.24356456809037 44.52584193192655 321.30182649270375
C 45.00957406779021 48.30186978846476 321.2463980004167
C 41.96680034998653 49.32882775910355 323.30625457323765
C 39.12563335692463 46.88013420089241 323.99687581576467
C 40.17242765120229 44.890193539121356 327.07436427573634
C 39.343144145095806 43.51191484642317 330.475751801193
C 42.344559131384315 45.285457266234516 331.9915832972152
C 42.039234669494576 48.620178852209236 330.1996598137369
C 38.23019051576333 48.858021780629365 330.3544931643908
C 37.5759969015573 46.925897693804544 333.59841042555007
C 34.83274205563546 45.23384579970516 331.57777716637105
C 33.33862686855287 41.76058159602615 331.8609060170643
C 35.92800508268006 39.20057166409631 330.8324083544687
C 35.417858213556435 36.281839800527926 328.45747398861863
C 35.195218726494495 32.84528944933646 330.06316039163863
C 37.2763135996145 31.40700281276813 327.19166450941447
C 39.99759793333707 33.910837441766326 326.3277911178801
C 42.009626226112296 35.94344505662115 328.855447721532
C 42.143812144290905 39.73779354140908 328.5051734063333
C 39.252814707827085 39.69422565768381 325.9860321066143
C 36.276730971081534 42.033925340365464 326.3002397464821
C 32.85481754052822 40.42323592950719 326.00444542437083
C 31.369590750165838 43.33412821326899 324.06267652360316
C 34.22859018171646 43.18654855104618 321.5646015779058
C 33.2559440819164 39.60635605910882 320.70981068927915
C 29.657191377874785 40.63302848100204 320.03843026582604
C 30.998240708233606 43.13252257747908 317.5023853009068
C 33.4028817446343 40.54590895113507 316.07577377946717
C 30.86191653127436 37.70595746562101 316.0160870827337
C 28.149525600139462 39.89551167143811 314.521146712761
C 30.43169090752733 41.180249475716394 311.7612780452962
C 31.539123383878295 37.73840225842666 310.5783068212855
C 28.080889434816488 36.220925086045185 311.1076339051993
C 26.463840683519127 38.83631970875935 308.85550992779844
C 29.192770233767916 38.426691282799766 306.24406499331036
C 28.90966239484717 34.62955937223795 306.3135683388192
C 25.108651874517655 34.754975847159976 306.1234371203377
C 25.45090734984573 36.8628261417846 302.97936510880487
C 28.22629783910108 34.68793725587335 301.52442620434795
C 26.099141125495898 31.571444226655178 302.01139342974585
C 23.17870022611312 33.2052952787102 300.20385029196365
C 25.45064086970587 34.61021218326052 297.4964819771144
C 27.28685041735428 31.349574460891354 296.8058188096994
C 23.943868955704993 29.572963229666307 296.36502999609104
C 22.7476514204182 32.25682446016556 293.94033055933755
C 26.092075725538034 32.14347182497718 292.10398635189483
C 25.902329745515758 28.363866166660838 291.71331310735917
C 22.2320787866569 28.548617086807976 290.68618343006085
C 22.982901346882738 31.18916269523485 288.0526869521011
C 25.89364182089653 29.056158251885293 286.84147996599245
C 23.472319000146765 26.21913432466622 286.0513206420566
C 20.88142021769613 28.44779444007066 284.35489843948903
C 22.829780957475617 28.59172125188532 281.08279522907605
C 24.445006905696758 25.153823961350145 281.1860637195767
C 25.20240200809252 22.3130513319307 283.505237777919
C 28.62263914001467 20.788859073560026 282.9279544780977
C 27.845905097305025 17.064196641006525 283.1823155173917
C 28.967711525353256 14.498076763474199 280.62405036657157
C 27.529265217312844 10.991366873604488 280.3694134989198
C 29.45287626686634 8.103711353780021 278.82814236311384
C 27.71913097005712 4.782345043545979 278.12655806575674
C 29.894749723993456 2.023825464549007 276.68996447917715
C 29.365728471163955 -1.542936803351306 275.57476141241426
C 32.50033812328167 -3.6950412006825926 275.62836945878223
C 33.27761914726808 -7.4022345785277 276.028313131117
C 37.08248413797441 -7.503608734281415 275.8031984010346
C 37.54582745480333 -3.998380867953506 277.2255222999027
C 38.76777585778162 -2.0735879506603476 274.17361921975083
C 35.762159722872816 0.24465368989047234 274.2007112233084
C 35.937311246320085 0.44232015144463144 278.008274118858
C 39.55988273774671 1.5819225623139195 277.7884840579557
C 38.54193291524626 4.04068064587352 275.0646845929506
C 35.76333887285345 5.48406953790183 277.22586401133657
C 37.99987939093204 5.711117170508646 280.30466816017884
C 40.56866620371265 7.612768355128796 278.23163600591664
C 37.92397387874994 10.060318871351534 276.9922661544847
C 36.645866666370694 10.292008847187665 280.57095540611004
C 39.874767754451234 11.732768897456559 281.9892554848197
C 40.36585145040118 14.295070694972203 279.2022496324449
C 36.87995564245921 15.681140426900898 279.85703521340923
C 37.41067856178061 15.471995135418975 283.6233995251703
C 40.467368983977266 17.71836956950517 283.294233070703
C 38.61017658623533 20.108275338230037 280.9785786287646
C 35.93349076989653 20.929186817369196 283.5631428541442
C 33.15853107244241 18.379943198385167 283.00309204034437
C 31.492969898132987 16.41797696395869 285.7928914204783
C 31.9948597713455 13.083384216142045 284.0355609375298
C 29.696991885660555 10.111076895421466 284.7210347869605
C 30.856824380982477 6.8651733486821955 283.08983384940973
C 28.5284833094476 3.853790396696206 283.08036147595277
C 28.479125359927433 0.409487348920266 281.5005625006142
C 25.534257561210485 -0.12162405889653163 279.1498376674996
C 24.550565866676703 -3.298058021638957 281.0214226349609
C 23.737630821022524 -1.2725527893670807 284.16406564299064
C 21.516804684986134 1.5298548073685705 282.798695983545
C 17.827087026276576 1.9628690309251848 282.0410667972739
C 17.01895195180914 3.7978412988281254 278.81795881218994
C 14.079512534376278 5.820080660798376 280.1472924275223
C 15.228141218428096 9.374336101327561 280.8110506847659
C 18.864456794657652 8.263241022132602 280.81972472542924
C 20.274397790731143 11.422190979838 279.2247851872535
C 18.387543686660663 13.818093897004719 281.5087762852955
C 20.57666953227331 16.148338119169196 283.54361467342363
C 23.504742926654107 15.796566253838296 281.12751066662315
C 24.26911343173154 18.242030474650903 278.32545783396057
C 26.941457402624643 16.01545005134989 276.7786091819227
C 26.374713889796464 12.308240929020794 276.118445095238
C 28.948046322718046 9.979590406705402 274.5598848318324
C 27.773942595453956 6.54463646145644 273.4589502167153
C 30.444995951921662 3.9382210596239458 272.74465735211834
C 29.87669510419987 0.4769826951219312 271.33232488824814
C 31.926957611400752 -2.228024511680203 269.63167229868145
C 30.774814471794386 -4.108947734852229 266.5334852928513
C 30.2147958318108 -7.880098314554727 266.54470773443103
C 28.940070039602166 -8.751708746269786 263.08415715794115
C 29.790719649400515 -12.453972569411707 262.8092520950263
C 28.299808444906024 -12.565743551375997 259.31868730292337
C 25.9724144112323 -9.554689900284421 259.69394549740883
C 26.26832287396861 -6.318441419637711 261.6956367638857
C 25.566444439799845 -6.425919035513556 265.4233466011669
C 26.057391185898744 -4.140323891235249 268.4004631736137
C 27.84627440061242 -5.328291409924116 271.51174832798614
C 25.23132341860578 -7.289193816982344 273.4008395903766
C 25.093324163028186 -5.098618748332043 276.50565641732817
C 24.24377922811582 -2.085043864839858 274.3278472969391
C 21.307535096768273 -3.553651898127341 272.38946541465026
C 18.648616784865602 -2.9492444662000925 275.10772804305066
C 19.642766318226798 0.7220726974809479 275.1584148414654
C 19.7596452271558 0.9045117418050734 271.3700386784096
C 16.28776776044778 -0.6118605655588539 271.0421146112853
C 14.793073160783905 1.9673487398873004 273.4334461943679
C 17.009582613936974 4.9015050389554915 272.48727015677764
C 14.027492175329634 7.183789581327703 271.81026103987637
C 13.250481842639896 7.1111030569592675 275.55800681892964
C 16.619949491777213 8.561477273958504 276.5940972685698
C 15.883518567065387 12.225244763836235 275.87023550504597
C 18.29311274905084 12.565609793409603 272.9308505282487
C 16.31989965260098 15.157238868447886 270.9476826969471
C 18.0531521572091 18.518943530234363 271.1163037154294
C 20.875322221203383 17.13688031859154 273.2460259004931
C 24.57164823334599 17.15869897746103 272.34301338633617
C 25.885955970843945 13.650914355730706 271.6230926010913
C 28.782938589028227 11.895005698857332 269.9233410147104
C 29.689163043488144 8.271162079463322 269.31689067417784
C 32.81179505071922 6.139148747856925 269.5274416207509
C 33.54636066921718 2.457686905615792 269.1212921961336
C 36.198608974674755 -0.20739040628674 268.62105397688725
C 36.25255420940145 -2.380037282100592 265.52030523046335
C 38.5638076689997 -3.9483608796157643 262.95980424352206
C 38.85546252808786 -3.066991677099682 259.2842064337219
C 39.09633720184631 -6.676894979168281 258.0596684856694
C 35.3288399053889 -6.947001977913216 258.57417332960097
C 32.96828903801859 -5.709718136051901 255.8992411171943
C 31.39441615121885 -2.9757521914717993 258.0443381540714
C 34.1876800221712 -1.3489537126195223 260.0354972678144
C 32.63507939376009 -0.047353961004347155 263.26381891910364
C 29.149013306199045 -0.550374118936236 261.85551281357755
C 27.879903626620205 -0.12929552162986938 265.41692554359724
C 28.761231452919482 3.5712730650308346 265.6216487328817
C 27.15828861477596 4.05578223518745 262.2002700089899
C 23.91868673293207 2.5088827710471553 263.45228358300477
C 23.96192311225224 4.532752737224435 266.67722168796064
C 24.688736719309155 7.828384734092366 264.90973897344753
C 21.950748100722937 7.260841175273914 262.3178486779258
C 19.404157725072487 6.619311640208886 265.0648941209825
C 20.65705625630624 9.64351420854991 267.00235865837885
C 20.15703089063257 11.737754648587119 263.8626695272601
C 16.660975671861323 10.319206927450956 263.4065750571099
C 15.901671756649707 11.290337798581819 267.02076533065485
C 16.89239315943872 14.927890070842798 266.542565083435
C 20.006191475661844 14.780888200199088 268.6952389395056
C 22.626016079759093 17.475736371057504 268.09614501496355
C 25.631721763944757 15.420006262584156 266.993784119214
C 28.63591724638297 17.56134254841538 267.88060751175345
C 31.119418661342014 15.830407220871743 265.56304039554055
C 31.822414721018067 12.662559549403333 263.61794541237913
C 32.21562162671866 9.394150469017042 265.4451945685315
C 35.48296535760009 7.956738739981292 266.7095547033627
C 36.23627385495353 4.653214495755776 264.9537698509566
C 39.19100475352175 2.7721858462133966 266.4440607782189
C 40.868890440702145 0.09840772928358078 264.32465258064343
C 42.65219483368982 -2.7054027805156773 266.1273664998729
C 44.082970050522924 -2.0818507992230004 269.57421139059596
C 42.932331870016135 1.2410834387456966 271.08018334545363
C 46.1050020170765 1.5590721828578675 273.1530124827445
C 48.074137496689325 1.80279843037057 269.88296277114864
C 45.79833702019483 4.662436056910316 268.7116512097611
C 45.6844859325726 6.769101983027104 271.8876119913374
C 46.60213023825214 10.03879940304621 270.1430239660133
C 43.35148128274495 9.874094922275445 268.16707211879907
C 41.19028492450883 9.055927886164065 271.1990663947432
C 42.618117421536574 12.032035631127371 273.0855491906326
C 42.39790170933194 14.194540838969457 269.968647342169
C 38.751747532304215 13.244003184784205 269.4682209646602
C 37.94173832989032 13.919077048434938 273.12687336861393
C 39.53565150008636 17.346857016711834 272.70877925256536
C 37.22991786413381 18.171417615800067 269.80076133824133
C 34.14582769373582 16.885482056013302 271.6371013831629
C 35.20605232824723 18.973020638714768 274.64830010162706
C 34.087067435980096 22.1658336349878 272.91478002289074
C 30.438214696195637 21.085995089116192 272.85569955140966
C 29.831990009220842 23.374226825110743 275.856501393778
C 31.675012823403655 26.73245553954768 275.74361089265
C 34.72827043298855 27.17242059596931 277.96171502604886
C 33.181698907747176 30.129818294597463 279.7940348361662
C 30.151812075650582 28.100057246462825 280.8806449385198
C 32.26063442505257 25.224096173616793 282.1945035722696
C 34.737797731478274 27.609008102627527 283.8256636244429
C 31.950480187034838 29.541080982811174 285.54429978668963
C 30.588948256214785 26.24773741860635 286.90227255131185
C 33.86388156981136 24.958902482132373 288.3327361180928
C 34.54382716186025 28.388821387242302 289.83028939530806
C 31.097725019221357 28.27661219058796 291.4273948495401
C 31.594829500650686 24.65567399222348 292.51527286782266
C 35.03759825099038 25.417613752070427 293.9544356857212
C 33.788383534924705 28.365512457382735 296.01229330521966
C 30.95792497511181 26.421203304931392 297.64606251060417
C 33.44871139558306 23.74214896264677 298.6802868493153
C 35.76904339205706 26.313942598298446 300.27215080552673
C 32.742241513830685 27.729306167787875 302.08934422235933
C 31.371777422164545 24.410973661413824 303.3727823106682
C 34.81444360878397 23.39375497385186 304.6338695082897
C 35.14075236194652 26.756318175895746 306.3789988752258
C 31.76601304655158 26.333658774873477 308.09629001586063
C 32.59867939074391 22.777493171017817 309.17024624352075
C 35.92014046612104 23.684141117288 310.78319428074485
C 35.463591505690985 27.20093132106661 312.1512993608991
C 31.71031432945667 26.959305787585073 312.7075817597295
C 31.847990855947593 24.957086678538975 315.94761778618357
C 34.372410433594276 27.35468894421521 317.4938980227967
C 32.095685964278296 30.266527580613506 316.5837090587643
C 29.202906989861685 28.487794965437267 318.2967444060211
C 31.38760291600012 28.193704660712473 321.40034017702556
C 32.053587139159305 31.937842689830862 321.3051950701271
C 28.309730823971567 32.52818523093442 320.9632082616859
C 27.765492229590674 30.451092980343176 324.1050001865701
C 30.333797718176786 32.662410846293206 325.84617149385656
C 28.886121110854717 36.10316467436702 325.099850564543
C 25.150906920745967 35.65558703390091 325.67799371830773
C 25.164748007664667 33.24371000515266 328.61067301536764
C 27.784964703575227 31.40471392012432 330.63490989322446
C 29.850368120035697 28.410746581281803 329.53882247323827
C 29.408955686593618 24.773766399315374 330.52310063962045
C 32.0104644120165 22.33349673433375 331.7797563210313
C 31.279674412752893 20.335578686806674 328.62151134689486
C 31.684689535774215 23.229989778060084 326.17953412794054
C 35.088105286307794 24.07047474280479 327.6877465265323
C 36.16332925765788 20.48223548386825 326.89361489649554
C 34.981818956176355 20.19275240921386 323.28184263461316
C 36.64408552162359 23.575306263198467 322.7139382364403
C 40.051025740405976 21.874096504960814 322.85158295055686
C 39.01631007310301 19.749110326625278 319.8580552834531
C 36.95519842071214 22.387079831651203 318.04700009355304
C 39.98219173121891 24.693112240052685 318.03152840351095
C 41.950004982934246 21.90785778116249 316.3325956359998
C 39.260101570203545 21.843462840486882 313.64651667401864
C 40.21331435405571 25.465192382390544 312.9754361465845
C 43.75068330564736 24.346086082186133 312.0966781191823
C 42.86266752387482 21.582367567797476 309.64478749317686
C 40.819365591871005 24.099257000524922 307.66248313893726
C 44.16067700856486 25.707061271077258 306.81111456112865
C 45.537136932493446 22.265965283756806 305.871541181867
C 42.821950296756796 21.066979651781942 303.49367299306266
C 42.50060967068523 24.384732007706337 301.646602730658
C 45.890289819504936 23.881303264457458 299.9293336813643
C 44.622751104953814 20.36381869990186 299.1969774706228
C 41.43313133333571 21.79716136676562 297.6792787554385
C 43.39790063261656 24.20810224922285 295.4909169806153
C 45.471660930880525 21.322394888739936 294.1351726833021
C 42.51033017389887 19.129898431738773 293.1883649284411
C 40.420693028941024 21.772008759247008 291.38928133526395
C 42.83634163658136 24.38239941577162 290.001626403603
C 44.18695553265317 22.586354076036354 286.93862965475876
C 46.445945088981205 25.556064094281563 286.14835406745823
C 48.103327942690214 25.438944134689127 289.5759225718413
C 49.107693907056195 21.810441734822113 289.0214221047783
C 50.917462355661264 22.76312451245997 285.8146479160701
C 52.63689071318794 25.74687961539602 287.4417243229441
C 53.75127675865377 23.3056693907038 290.14695151453526
C 55.16509614895882 20.849899827705094 287.60121025763186
C 56.867441268986134 23.821399806512243 285.91124343310764
C 59.22259537813398 23.822937569075414 288.9069487520894
C 59.36186856047243 20.00818292416236 288.6585785115738
439
Mode 7 - Frame 15
C 49.211 36.102 337.397
C 50.641 33.922 338.739
C 50.481 30.678 336.798
C 50.247 33.045 333.827
C 47.502 33.96 331.375
C 49.019 32.218 328.358
C 47.901 31.39 324.833
C 46.988 27.713 324.364
C 46.699 27.216 328.147
C 43.349 25.426 328.126
C 41.572 23.38 330.808
C 43.149 20.132 329.497
C 40.979 17.476 331.113
C 43.256 14.428 330.816
C 41.882 10.915 330.366
C 45.381 9.485 329.797
C 48.942 10.661 330.443
C 51.749 11.076 329.43
C 51.312 9.291 326.097
C 48.565 11.787 325.308
C 50.8 14.666 326.392
C 53.73 13.255 324.412
C 51.88 11.85 321.394
C 49.384 14.708 321.022
C 52.257 17.181 321.314
C 54.322 15.675 318.489
C 51.154 15.02 316.482
C 49.82 18.569 316.813
C 53.23 20.137 316.183
C 53.764 18.015 313.062
C 50.29 18.899 311.784
C 51.018 22.59 312.3
C 54.406 22.626 310.575
C 52.939 20.654 307.665
C 50.341 23.401 307.198
C 52.9 26.217 307.278
C 54.957 24.499 304.58
C 52.047 23.481 302.356
C 50.536 26.975 302.508
C 54.027 28.363 301.94
C 54.107 26.082 298.891
C 50.902 27.647 297.541
C 52.335 31.125 298.123
C 55.424 30.076 296.151
C 53.914 28.787 292.897
C 51.72 31.893 292.621
C 54.442 34.505 293.121
C 56.81 32.312 291.089
C 54.75 32.179 287.883
C 53.513 35.246 286.012
C 50.632 33.422 284.31
C 48.928 33.327 287.741
C 49.908 36.552 289.536
C 48.199 38.427 286.682
C 44.934 36.498 287.155
C 42.379 38.069 289.542
C 41.269 34.575 290.6
C 44.696 33.815 292.101
C 44.662 37.038 294.091
C 41.844 35.166 295.865
C 43.713 31.891 296.453
C 46.926 33.655 297.443
C 44.939 35.782 299.887
C 43.408 32.657 301.438
C 46.73 30.813 301.545
C 48.532 33.696 303.262
C 45.599 33.882 305.681
C 45.873 30.139 306.325
C 49.629 30.612 306.732
C 49.327 33.557 309.14
C 47.296 31.331 311.452
C 49.29 28.127 311.023
C 52.473 30.088 311.775
C 50.969 31.511 314.971
C 49.859 28.002 315.914
C 53.315 26.438 315.635
C 54.947 29.482 317.233
C 52.636 29.574 320.257
C 52.728 25.775 320.538
C 56.531 25.567 320.665
C 56.714 28.75 322.765
C 54.524 27.301 325.548
C 54.443 23.491 325.331
C 58.244 23.294 324.914
C 59.727 26.392 326.569
C 56.819 27.091 328.963
C 57.405 30.827 328.557
C 54.882 33.347 329.86
C 52.699 35.712 327.85
C 52.18 39.324 328.876
C 49.009 41.186 327.883
C 50.272 42.456 324.523
C 52.142 39.294 323.507
C 48.965 37.317 324.216
C 46.598 39.549 322.234
C 49.037 39.691 319.314
C 48.936 35.895 319.041
C 45.149 35.819 319.397
C 44.743 38.783 317.056
C 46.834 37.021 314.432
C 44.494 34.03 314.536
C 41.534 36.416 314.571
C 42.999 38.23 311.556
C 43.548 34.934 309.724
C 39.847 34.071 309.891
C 38.753 37.65 309.216
C 40.734 37.841 305.975
C 39.428 34.379 305.066
C 35.828 35.583 305.358
C 36.831 38.877 303.749
C 38.274 36.949 300.804
C 35.096 34.898 300.341
C 33.231 38.214 300.377
C 35.331 39.689 297.563
C 34.898 36.469 295.591
C 31.117 36.816 295.843
C 31.425 40.33 294.396
C 33.524 39.059 291.489
C 30.885 36.433 290.727
C 28.119 39.029 291.008
C 29.91 41.107 288.362
C 30.365 38.023 286.171
C 26.635 37.284 286.432
C 25.297 40.817 285.942
C 27.962 42.083 283.487
C 29.094 38.986 281.567
C 30.096 41.0 278.497
C 32.373 43.558 280.181
C 33.426 41.428 283.174
C 37.007 41.003 281.94
C 37.57 44.768 281.74
C 35.852 45.544 285.07
C 37.639 43.079 287.375
C 41.311 43.657 286.549
C 44.63 42.979 288.249
C 44.957 46.535 289.653
C 41.316 46.469 290.77
C 41.719 43.126 292.542
C 44.897 44.179 294.366
C 43.223 47.308 295.744
C 40.175 45.361 296.928
C 42.279 42.749 298.723
C 44.729 45.254 300.214
C 41.804 47.239 301.62
C 40.129 44.089 302.899
C 43.229 42.957 304.792
C 43.71 46.339 306.461
C 40.091 46.137 307.607
C 40.746 42.562 308.738
C 43.979 43.494 310.531
C 42.358 46.495 312.21
C 39.875 44.278 314.046
C 42.629 42.094 315.492
C 44.594 45.134 316.64
C 41.499 46.825 318.16
C 41.468 44.361 321.085
C 45.249 44.537 321.295
C 45.015 48.313 321.236
C 41.973 49.342 323.296
C 39.132 46.894 323.99
C 40.18 44.907 327.069
C 39.352 43.532 330.472
C 42.354 45.307 331.985
C 42.048 48.64 330.19
C 38.239 48.878 330.346
C 37.586 46.949 333.592
C 34.842 45.255 331.574
C 33.348 41.782 331.861
C 35.937 39.221 330.834
C 35.426 36.3 328.462
C 35.204 32.865 330.071
C 37.284 31.424 327.2
C 40.005 33.927 326.333
C 42.018 35.962 328.858
C 42.152 39.756 328.504
C 39.26 39.71 325.986
C 36.284 42.05 326.299
C 32.862 40.439 326.006
C 31.376 43.348 324.062
C 34.234 43.198 321.563
C 33.261 39.617 320.712
C 29.662 40.643 320.041
C 31.002 43.14 317.502
C 33.406 40.552 316.077
C 30.865 37.712 316.021
C 28.152 39.9 314.525
C 30.433 41.182 311.763
C 31.54 37.739 310.583
C 28.082 36.222 311.115
C 26.464 38.835 308.861
C 29.192 38.423 306.249
C 28.909 34.626 306.322
C 25.108 34.751 306.133
C 25.449 36.856 302.987
C 28.224 34.68 301.533
C 26.097 31.564 302.023
C 23.176 33.196 300.215
C 25.447 34.599 297.506
C 27.283 31.338 296.817
C 23.94 29.561 296.378
C 22.743 32.243 293.952
C 26.087 32.129 292.115
C 25.897 28.349 291.726
C 22.227 28.533 290.699
C 22.977 31.173 288.065
C 25.888 29.04 286.854
C 23.467 26.203 286.063
C 20.876 28.432 284.367
C 22.825 28.579 281.095
C 24.441 25.142 281.196
C 25.197 22.299 283.513
C 28.617 20.775 282.935
C 27.839 17.05 283.183
C 28.962 14.487 280.622
C 27.523 10.981 280.361
C 29.447 8.095 278.817
C 27.713 4.775 278.109
C 29.889 2.018 276.67
C 29.36 -1.547 275.549
C 32.494 -3.7 275.602
C 33.27 -7.408 275.997
C 37.075 -7.51 275.775
C 37.538 -4.007 277.203
C 38.763 -2.078 274.155
C 35.758 0.241 274.183
C 35.93 0.433 277.991
C 39.553 1.572 277.776
C 38.538 4.035 275.055
C 35.758 5.476 277.216
C 37.992 5.698 280.297
C 40.563 7.602 278.229
C 37.92 10.052 276.991
C 36.639 10.279 280.569
C 39.867 11.717 281.992
C 40.361 14.283 279.209
C 36.875 15.669 279.863
C 37.403 15.455 283.63
C 40.46 17.701 283.306
C 38.605 20.094 280.991
C 35.927 20.913 283.575
C 33.152 18.365 283.01
C 31.484 16.4 285.796
C 31.986 13.067 284.034
C 29.687 10.094 284.713
C 30.847 6.85 283.078
C 28.518 3.839 283.062
C 28.469 0.3970000000000001 281.477
C 25.526 -0.12999999999999998 279.123
C 24.54 -3.309 280.989
C 23.725 -1.288 284.134
C 21.506 1.517 282.771
C 17.817 1.952 282.011
C 17.012 3.792 278.79
C 14.072 5.813 280.12
C 15.221 9.366 280.79
C 18.857 8.254 280.8
C 20.269 11.415 279.211
C 18.381 13.808 281.497
C 20.569 16.135 283.537
C 23.499 15.786 281.123
C 24.266 18.235 278.325
C 26.939 16.01 276.777
C 26.372 12.304 276.111
C 28.946 9.977 274.551
C 27.772 6.544 273.444
C 30.443 3.938 272.728
C 29.875 0.479 271.31
C 31.926 -2.224 269.607
C 30.776 -4.1 266.505
C 30.215 -7.871 266.51
C 28.943 -8.737 263.047
C 29.793 -12.439 262.767
C 28.305 -12.545 259.275
C 25.978 -9.534 259.653
C 26.273 -6.301 261.66
C 25.568 -6.414 265.387
C 26.057 -4.133 268.368
C 27.843 -5.326 271.479
C 25.226 -7.289 273.363
C 25.086 -5.103 276.471
C 24.239 -2.086 274.297
C 21.304 -3.551 272.354
C 18.643 -2.95 275.071
C 19.638 0.721 275.128
C 19.758 0.909 271.34
C 16.286 -0.606 271.007
C 14.79 1.97 273.401
C 17.008 4.905 272.461
C 14.027 7.189 271.785
C 13.247 7.111 275.532
C 16.616 8.559 276.573
C 15.881 12.224 275.854
C 18.293 12.568 272.917
C 16.322 15.163 270.936
C 18.056 18.524 271.111
C 20.876 17.138 273.241
C 24.573 17.16 272.341
C 25.887 13.653 271.617
C 28.785 11.899 269.917
C 29.691 8.276 269.306
C 32.813 6.143 269.516
C 33.547 2.462 269.105
C 36.199 -0.203 268.603
C 36.255 -2.371 265.499
C 38.568 -3.936 262.938
C 38.863 -3.049 259.264
C 39.104 -6.657 258.034
C 35.336 -6.927 258.545
C 32.978 -5.685 255.87
C 31.403 -2.954 258.018
C 34.195 -1.331 260.014
C 32.64 -0.03400000000000004 263.243
C 29.155 -0.534 261.831
C 27.883 -0.11800000000000002 265.392
C 28.765 3.582 265.603
C 27.165 4.072 262.181
C 23.924 2.524 263.428
C 23.965 4.543 266.656
C 24.694 7.841 264.894
C 21.958 7.278 262.299
C 19.409 6.633 265.043
C 20.661 9.654 266.986
C 20.164 11.753 263.849
C 16.668 10.336 263.388
C 15.906 11.302 267.003
C 16.898 14.94 266.531
C 20.01 14.789 268.686
C 22.631 17.484 268.093
C 25.637 15.429 266.99
C 28.641 17.568 267.882
C 31.126 15.84 265.564
C 31.83 12.675 263.615
C 32.221 9.404 265.438
C 35.487 7.964 266.703
C 36.241 4.663 264.943
C 39.194 2.779 266.433
C 40.873 0.10799999999999997 264.311
C 42.654 -2.699 266.111
C 44.082 -2.081 269.56
C 42.931 1.24 271.07
C 46.102 1.554 273.146
C 48.074 1.802 269.878
C 45.8 4.664 268.709
C 45.684 6.766 271.888
C 46.604 10.038 270.149
C 43.355 9.877 268.17
C 41.191 9.055 271.199
C 42.618 12.028 273.091
C 42.401 14.195 269.977
C 38.755 13.246 269.472
C 37.942 13.916 273.131
C 39.537 17.344 272.719
C 37.234 18.173 269.81
C 34.148 16.885 271.642
C 35.206 18.968 274.657
C 34.089 22.163 272.926
C 30.44 21.084 272.863
C 29.831 23.368 275.866
C 31.674 26.726 275.757
C 34.727 27.162 277.977
C 33.179 30.117 279.81
C 30.148 28.087 280.894
C 32.256 25.21 282.207
C 34.733 27.593 283.84
C 31.945 29.525 285.558
C 30.583 26.231 286.915
C 33.857 24.941 288.346
C 34.538 28.372 289.843
C 31.092 28.261 291.44
C 31.589 24.64 292.529
C 35.032 25.403 293.968
C 33.784 28.353 296.024
C 30.954 26.41 297.66
C 33.445 23.732 298.696
C 35.766 26.305 300.285
C 32.74 27.722 302.102
C 31.37 24.405 303.389
C 34.813 23.389 304.65
C 35.14 26.753 306.392
C 31.766 26.332 308.111
C 32.599 22.777 309.188
C 35.921 23.685 310.799
C 35.465 27.203 312.164
C 31.712 26.962 312.722
C 31.851 24.963 315.964
C 34.376 27.362 317.507
C 32.099 30.273 316.595
C 29.207 28.496 318.311
C 31.393 28.205 321.414
C 32.059 31.949 321.315
C 28.315 32.539 320.974
C 27.772 30.465 324.118
C 30.341 32.678 325.856
C 28.893 36.118 325.107
C 25.158 35.671 325.687
C 25.173 33.262 328.622
C 27.794 31.425 330.647
C 29.859 28.43 329.553
C 29.418 24.794 330.541
C 32.02 22.355 331.799
C 31.288 20.354 328.643
C 31.692 23.246 326.198
C 35.096 24.088 327.704
C 36.171 20.499 326.913
C 34.988 20.206 323.302
C 36.65 23.588 322.73
C 40.057 21.887 322.868
C 39.021 19.759 319.877
C 36.959 22.395 318.064
C 39.986 24.701 318.045
C 41.953 21.914 316.348
C 39.262 21.847 313.663
C 40.215 25.468 312.988
C 43.752 24.348 312.109
C 42.863 21.582 309.66
C 40.819 24.097 307.676
C 44.16 25.704 306.822
C 45.536 22.262 305.885
C 42.82 21.061 303.509
C 42.498 24.377 301.659
C 45.887 23.872 299.941
C 44.619 20.354 299.212
C 41.429 21.786 297.694
C 43.393 24.195 295.503
C 45.466 21.308 294.149
C 42.504 19.115 293.204
C 40.414 21.755 291.403
C 42.83 24.365 290.014
C 44.18 22.567 286.952
C 46.439 25.536 286.159
C 48.097 25.421 289.586
C 49.101 21.792 289.034
C 50.91 22.742 285.826
C 52.63 25.727 287.45
C 53.745 23.288 290.157
C 55.158 20.83 287.613
C 56.86 23.8 285.92
C 59.216 23.804 288.915
C 59.355 19.989 288.67
439
Mode 7 - Frame 16
C 49.2230150127974 36.129110199348496 337.3964831838669
C 50.653746856687064 33.95054843442474 338.74003507405786
C 50.49296846243404 30.704569874439596 336.80236278761015
C 50.25753024870584 33.06850671049518 333.829072291186
C 47.5114770645801 33.981034437661684 331.37731498926206
C 49.02731156520174 32.236102296696515 328.36141844283185
C 47.90793348200867 31.404658248286765 324.8376715034962
C 46.99465694977993 27.727217472533535 324.37247074589675
C 46.70718644094696 27.233958877377642 328.15610381840344
C 43.35704842565808 25.44404707661513 328.1377995596495
C 41.58098862172187 23.40082727701893 330.82259130638454
C 43.15749717813175 20.151592257419594 329.5142202171655
C 40.98819760687727 17.497220891000364 331.1337892229245
C 43.26561567661193 14.449259596111029 330.83972945141386
C 41.89189116612676 10.93556208160499 330.39464195044525
C 45.390827659732565 9.505366953770855 329.8256607614375
C 48.951975702438645 10.682554475519886 330.4685953093868
C 51.75845017117568 11.096545211001938 329.4537526183626
C 51.319971171475075 9.307728984130879 326.12296181490336
C 48.57241552616543 11.802599778564463 325.3324005025911
C 50.80769100228491 14.682946422210133 326.41214044726075
C 53.736867476885635 13.26985568936252 324.4323058527932
C 51.88545440126232 11.86156125720036 321.41672514251474
C 49.38919821627385 14.719057359675721 321.042732592379
C 52.2622702776201 17.192423926933284 321.3307728313352
C 54.326004500639065 15.683464336927262 318.5064233713602
C 51.15709247636381 15.026394050513138 316.50156773971804
C 49.82324219672868 18.575717091842822 316.82936263009697
C 53.232986064255805 20.14306464718736 316.19633722128685
C 53.765509354283544 18.017880411931984 313.07722776804957
C 50.29103455723445 18.90067645251444 311.79972166765305
C 51.019328913616796 22.592151106230673 312.31174660464706
C 54.40660912349599 22.62635231255158 310.5853453144069
C 52.938354607733686 20.65155873074512 307.67781485755705
C 50.3403156113465 23.398172358610296 307.2090751674487
C 52.89941692740432 26.214176392333112 307.28550672678637
C 54.955336531268586 24.49354185665037 304.58834964093813
C 52.04450213754179 23.473668951045447 302.36627829320236
C 50.533681588732264 26.96783723234588 302.51563692639303
C 54.024579031618586 28.355238562113207 301.9452708366806
C 54.10341374680015 26.071615539799797 298.89827185996944
C 50.89804678495501 27.63558973821206 297.547961709883
C 52.33135845948029 31.11405979036039 298.1265397383894
C 55.41974203450301 30.06342256837086 296.1545405890473
C 53.9086723335375 28.77177115028213 292.9021390111144
C 51.71463630873939 31.877611137260377 292.62415821499957
C 54.43685366368027 34.489925530952775 293.1210748467043
C 56.804155672942315 32.295149502230345 291.0901902889862
C 54.7431339067694 32.159501078584995 287.88496691370784
C 53.50555384246305 35.22490337305539 286.01174811063055
C 50.62394354031196 33.39961527877712 284.31225629904316
C 48.92103950056237 33.307659052030225 287.7438645354721
C 49.90173508762143 36.53404741859071 289.5357451869439
C 48.191833176879236 38.40673245676895 286.68070931006656
C 44.926766918316886 36.47854451214939 287.1563466338891
C 42.37259410007378 38.0517913412336 289.54281421278426
C 41.263135976630274 34.55889693636044 290.60448406594963
C 44.690508832393206 33.79951088604849 292.1047281307603
C 44.65733035725639 37.024082424537056 294.0920911708113
C 41.83985385324501 35.153633140314966 295.8686048058574
C 43.708814744053846 31.878884818243897 296.4586216454889
C 46.92219306855003 33.64359418207081 297.44608482116473
C 44.93618125036209 35.7727836174827 299.8889763451128
C 43.405564697265 32.649125716047934 301.44315141356464
C 46.72748282121972 30.80511682067772 301.5505872262227
C 48.53022210461929 33.689625738953545 303.2644095078222
C 45.59810340076477 33.877901028669115 305.6842934130318
C 45.872227624489945 30.135483445421897 306.33153659734984
C 49.62837132564904 30.608765259059822 306.73670398273464
C 49.32739577139694 33.556090604494266 309.1420804181485
C 47.29721241162038 31.332293752569274 311.4569296261997
C 49.290953611704964 28.127856315805086 311.03013269480255
C 52.47432090194802 30.089540327312697 311.77898183687506
C 50.97165915559909 31.515737732590097 314.974223413118
C 49.86196967138977 28.00763418072393 315.9210560269281
C 53.31788496469542 26.443405643377538 315.6421410310782
C 54.95063639272999 29.488998146506997 317.2364309202623
C 52.640945344125335 29.58409213498903 320.26135619039025
C 52.73307392016592 25.785381999048806 320.5460772156011
C 56.5361175529768 25.577536170931815 320.6716456120842
C 56.720002843799996 28.762684126680817 322.76842295168495
C 54.53120855379463 27.31647727460308 325.55381277279554
C 54.450199948219485 23.506296857224367 325.3406307789311
C 58.25105710769062 23.30893403843082 324.92216989421553
C 59.73468249101545 26.40859650607279 326.57349036569303
C 56.82766498767847 27.109863509561343 328.96805241058115
C 57.413435530282214 30.845457422342463 328.5581336961049
C 54.890944056610735 33.366621236700375 329.8598660611628
C 52.70709452301431 35.72965570870207 327.84852073845406
C 52.18848481152015 39.34267062911593 328.8712331187681
C 49.01701522924987 41.203639288842645 327.8777502709787
C 50.27872737860893 42.470348431313475 324.51602139006036
C 52.148344903759046 39.307368393766595 323.50227955936265
C 48.97163732392181 37.331048051739245 324.2145271683692
C 46.603832109523815 39.561060617491684 322.2313363926614
C 49.04166384066245 39.700156866977025 319.31019696541506
C 48.94060182088197 35.903905582888406 319.0408800535051
C 45.153740431958596 35.82820968670972 319.3985814015545
C 44.74670910550953 38.789873539662025 317.05492101519474
C 46.83659005112503 37.025252329252915 314.4317797758443
C 44.49658709937676 34.03434412739664 314.53959421416215
C 41.53662007704057 36.42039722352217 314.5735759461395
C 43.000421102432036 38.23148910000452 311.55629707360197
C 43.548694368258545 34.933750174363325 309.7271406628196
C 39.847768864460775 34.07094936575352 309.8963421545454
C 38.75352666458152 37.649318159886946 309.2184866574416
C 40.73339653338225 37.83732731125607 305.9766280035807
C 39.426991778975065 34.37446544872099 305.0711988732418
C 35.82712395744496 35.57868471437615 305.3633998001841
C 36.829668993763896 38.871351986680004 303.751248483159
C 38.271636493867476 36.94072723865094 300.80741901456355
C 35.09343718244675 34.889183035418036 300.347247892172
C 33.2285243385143 38.205282469015295 300.38136230403626
C 35.32782126046448 39.6781996115277 297.56555719655205
C 34.89384755635744 36.45659932193031 295.59614103100154
C 31.11298198629008 36.80381652431952 295.8493959091798
C 31.420531359645484 40.31733881533943 294.4006087230733
C 33.51842654320379 39.044574882702 291.4933663279368
C 30.878874804282173 36.41844609293396 290.73401675428715
C 28.112962226318956 39.01474237113985 291.01523270554884
C 29.902832303539284 41.09211692063275 288.3677927587101
C 30.35655030341475 38.007394701539816 286.1779218917705
C 26.626791469792618 37.268436894193755 286.44118485063336
C 25.28833316516726 40.8010854622857 285.9504406894606
C 27.952139053693568 42.0666832508671 283.4937871054249
C 29.08280307379393 38.96909115626741 281.5741747484522
C 30.082960692100375 40.9820623515833 278.5028697788936
C 32.361415106712876 43.54021342880977 280.1846262002576
C 33.41586334952063 41.411485268644476 283.1778137623942
C 36.99629062129689 40.984864163654166 281.94162268344974
C 37.55978137161114 44.74953897227518 281.7397130428841
C 35.844185265974 45.52673008589986 285.0707798538489
C 37.63228618130945 43.06136166070204 287.3749181401522
C 41.304050511660506 43.63772829684506 286.5462686005615
C 44.62376271555844 42.96041256070614 288.2451532414776
C 44.9523517475897 46.51737503818475 289.64641444164425
C 41.311871726367286 46.45310099964066 290.7649896396496
C 41.71462728527614 43.11111328131787 292.5393019129702
C 44.893394568230455 44.16521911425664 294.36130149396024
C 43.22009535195785 47.29559350133674 295.7372482303482
C 40.172018957212025 45.34974198483115 296.923660368503
C 42.27633996127437 42.738969692190686 298.72008120262933
C 44.727045226266554 45.2451098995551 300.2082162104201
C 41.80236132605841 47.231617963655765 301.61319865261834
C 40.12750994857186 44.082665728254376 302.8953387691257
C 43.22817420401863 42.95223176452416 304.78828105276233
C 43.709775330283975 46.33588208038163 306.4539944786911
C 40.0909782633618 46.13492466575711 307.6012780172363
C 40.74635650631817 42.560903953688936 308.7352751167809
C 43.980136866198734 43.49454104242117 310.52614392051765
C 42.359741172722316 46.49726237665483 312.2028262755546
C 39.877430090080814 44.28194262204818 314.04179518748276
C 42.632020450547735 42.09933024057125 315.4887778437394
C 44.59757219967359 45.14050804291877 316.6329804867764
C 41.50319153535051 46.83311183329109 318.1525136862061
C 41.47333010250223 44.371949097301155 321.07982369006083
C 45.254435431909634 44.54815806807345 321.2881735072963
C 45.02042593220979 48.32413021153525 321.22560199958326
C 41.97919965001347 49.35517224089645 323.28574542676233
C 39.138366643075365 46.90786579910759 323.98312418423535
C 40.18757234879771 44.92380646087864 327.0636357242637
C 39.36085585490419 43.552085153576826 330.468248198807
C 42.36344086861568 45.32854273376549 331.97841670278484
C 42.05676533050543 48.65982114779076 330.1803401862631
C 38.24780948423666 48.897978219370636 330.3375068356092
C 37.596003098442694 46.97210230619545 333.5855895744499
C 34.85125794436454 45.27615420029485 331.570222833629
C 33.357373131447126 41.80341840397384 331.8610939829357
C 35.945994917319936 39.241428335903684 330.8355916455313
C 35.43414178644357 36.31816019947207 328.46652601138135
C 35.212781273505506 32.88471055066354 330.0788396083614
C 37.2916864003855 31.44099718723187 327.2083354905855
C 40.012402066662936 33.943162558233674 326.33820888211994
C 42.026373773887705 35.980554943378856 328.860552278468
C 42.1601878557091 39.77420645859092 328.5028265936667
C 39.26718529217291 39.72577434231619 325.9859678933857
C 36.291269028918464 42.06607465963453 326.2977602535179
C 32.86918245947179 40.45476407049281 326.0075545756291
C 31.382409249834165 43.36187178673101 324.06132347639686
C 34.23940981828354 43.20945144895382 321.56139842209416
C 33.26605591808361 39.627643940891176 320.7141893107208
C 29.666808622125213 40.65297151899796 320.04356973417396
C 31.005759291766392 43.14747742252092 317.50161469909324
C 33.4091182553657 40.55809104886493 316.0782262205328
C 30.868083468725636 37.718042534378995 316.02591291726634
C 28.15447439986054 39.90448832856189 314.528853287239
C 30.43430909247267 41.18375052428361 311.76472195470376
C 31.540876616121704 37.739597741573334 310.5876931787146
C 28.083110565183514 36.22307491395482 311.1223660948007
C 26.46415931648087 38.833680291240654 308.86649007220154
C 29.191229766232084 38.41930871720024 306.2539350066897
C 28.908337605152827 34.622440627762046 306.3304316611808
C 25.107348125482346 34.74702415284002 306.14256287966225
C 25.447092650154275 36.8491738582154 302.9946348911952
C 28.22170216089892 34.67206274412665 301.5415737956521
C 26.094858874504105 31.556555773344822 302.0346065702542
C 23.17329977388688 33.18670472128979 300.2261497080363
C 25.443359130294127 34.58778781673947 297.51551802288554
C 27.279149582645722 31.326425539108648 296.8281811903006
C 23.93613104429501 29.549036770333693 296.39097000390893
C 22.738348579581796 32.22917553983444 293.96366944066244
C 26.081924274461965 32.11452817502281 292.1260136481052
C 25.89167025448424 28.334133833339163 291.7386868926408
C 22.2219212133431 28.517382913192026 290.7118165699392
C 22.971098653117263 31.156837304765148 288.0773130478989
C 25.882358179103473 29.023841748114705 286.8665200340075
C 23.461680999853233 26.186865675333777 286.07467935794335
C 20.87057978230387 28.416205559929338 284.379101560511
C 22.820219042524382 28.56627874811468 281.107204770924
C 24.43699309430324 25.130176038649854 281.2059362804234
C 25.19159799190748 22.284948668069298 283.520762222081
C 28.611360859985332 20.76114092643997 282.9420455219023
C 27.832094902694973 17.035803358993476 283.18368448260827
C 28.956288474646744 14.475923236525801 280.61994963342846
C 27.516734782687156 10.970633126395512 280.35258650108017
C 29.441123733133658 8.08628864621998 278.8058576368862
C 27.706869029942883 4.767654956454022 278.0914419342432
C 29.883250276006542 2.012174535450993 276.6500355208229
C 29.354271528836044 -1.5510631966486939 275.5232385875857
C 32.48766187671833 -3.704958799317408 275.5756305412177
C 33.26238085273193 -7.4137654214723 275.96568686888304
C 37.067515862025594 -7.5163912657185845 275.74680159896536
C 37.53017254519666 -4.015619132046494 277.18047770009724
C 38.758224142218374 -2.082412049339652 274.1363807802491
C 35.75384027712719 0.23734631010952767 274.16528877669157
C 35.922688753679914 0.42367984855536855 277.97372588114195
C 39.54611726225328 1.5620774376860806 277.7635159420443
C 38.53406708475374 4.02931935412648 275.04531540704943
C 35.75266112714655 5.46793046209817 277.20613598866345
C 37.98412060906796 5.684882829491355 280.2893318398212
C 40.55733379628735 7.591231644871205 278.22636399408333
C 37.91602612125006 10.043681128648466 276.9897338455153
C 36.63213333362931 10.265991152812335 280.56704459389
C 39.85923224554876 11.701231102543442 281.99474451518034
C 40.356148549598814 14.270929305027796 279.21575036755513
C 36.87004435754079 15.656859573099103 279.86896478659077
C 37.39532143821939 15.438004864581025 283.63660047482966
C 40.452631016022735 17.68363043049483 283.31776692929697
C 38.59982341376466 20.079724661769966 281.0034213712354
C 35.92050923010347 20.896813182630805 283.5868571458558
C 33.145468927557594 18.35005680161483 283.0169079596556
C 31.475030101867016 16.382023036041307 285.79910857952166
C 31.977140228654502 13.050615783857955 284.0324390624702
C 29.677008114339447 10.076923104578533 284.70496521303954
C 30.837175619017525 6.834826651317804 283.0661661505902
C 28.5075166905524 3.824209603303794 283.04363852404725
C 28.45887464007257 0.38451265107973404 281.45343749938576
C 25.517742438789515 -0.13837594110346835 279.0961623325004
C 24.529434133323296 -3.3199419783610433 280.95657736503904
C 23.71236917897748 -1.3034472106329194 284.1039343570094
C 21.495195315013866 1.5041451926314293 282.74330401645506
C 17.806912973723424 1.941130969074815 281.98093320272613
C 17.00504804819086 3.7861587011718743 278.7620411878101
C 14.06448746562372 5.8059193392016235 280.0927075724777
C 15.213858781571904 9.357663898672438 280.7689493152341
C 18.849543205342346 8.244758977867397 280.7802752745708
C 20.263602209268853 11.407809020161999 279.19721481274655
C 18.374456313339337 13.797906102995281 281.48522371470455
C 20.561330467726687 16.121661880830807 283.5303853265763
C 23.49325707334589 15.775433746161703 281.11848933337683
C 24.262886568268456 18.227969525349096 278.3245421660394
C 26.936542597375357 16.004549948650112 276.77539081807726
C 26.369286110203536 12.299759070979206 276.103554904762
C 28.943953677281957 9.974409593294599 274.5421151681676
C 27.77005740454604 6.543363538543559 273.4290497832847
C 30.44100404807834 3.9377789403760546 272.7113426478817
C 29.87330489580013 0.48101730487806876 271.28767511175187
C 31.925042388599245 -2.2199754883197973 269.5823277013186
C 30.777185528205614 -4.09105226514777 266.4765147071487
C 30.2152041681892 -7.8619016854452735 266.47529226556895
C 28.945929960397837 -8.722291253730214 263.0098428420589
C 29.795280350599484 -12.424027430588293 262.7247479049737
C 28.310191555093976 -12.524256448624003 259.2313126970766
C 25.983585588767703 -9.51331009971558 259.6120545025912
C 26.27767712603139 -6.283558580362289 261.62436323611433
C 25.569555560200158 -6.402080964486443 265.3506533988331
C 26.056608814101253 -4.125676108764751 268.3355368263863
C 27.83972559938758 -5.323708590075883 271.44625167201383
C 25.22067658139422 -7.288806183017655 273.3251604096234
C 25.07867583697181 -5.107381251667957 276.43634358267184
C 24.234220771884182 -2.0869561351601416 274.2661527030609
C 21.300464903231724 -3.5483481018726595 272.3185345853497
C 18.6373832151344 -2.950755533799908 275.0342719569494
C 19.633233681773206 0.719927302519052 275.09758515853457
C 19.756354772844197 0.9134882581949265 271.3099613215903
C 16.28423223955222 -0.600139434441146 270.9718853887147
C 14.786926839216093 1.9726512601126995 273.36855380563213
C 17.006417386063024 4.908494961044509 272.4347298432224
C 14.026507824670364 7.194210418672297 271.7597389601237
C 13.243518157360104 7.110896943040732 275.5059931810703
C 16.612050508222787 8.556522726041495 276.5519027314302
C 15.878481432934613 12.222755236163765 275.837764494954
C 18.292887250949157 12.570390206590396 272.90314947175125
C 16.324100347399018 15.168761131552115 270.9243173030529
C 18.0588478427909 18.52905646976564 271.10569628457057
C 20.87667777879662 17.139119681408463 273.23597409950685
C 24.57435176665401 17.16130102253897 272.33898661366385
C 25.888044029156056 13.655085644269295 271.61090739890875
C 28.787061410971774 11.902994301142666 269.91065898528956
C 29.692836956511854 8.280837920536678 269.2951093258221
C 32.814204949280786 6.146851252143074 269.50455837924915
C 33.547639330782815 2.4663130943842084 269.08870780386644
C 36.19939102532524 -0.19860959371326004 268.58494602311276
C 36.25744579059855 -2.361962717899408 265.4776947695367
C 38.572192331000295 -3.9236391203842356 262.9161957564779
C 38.87053747191214 -3.031008322900318 259.2437935662781
C 39.11166279815369 -6.6371050208317195 258.00833151433056
C 35.3431600946111 -6.906998022086783 258.51582667039906
C 32.98771096198141 -5.660281863948098 255.84075888280572
C 31.41158384878115 -2.9322478085282015 257.99166184592855
C 34.2023199778288 -1.3130462873804776 259.99250273218564
C 32.644920606239914 -0.020646038995652868 263.22218108089635
C 29.160986693800957 -0.5176258810637641 261.8064871864225
C 27.886096373379793 -0.10670447837013064 265.36707445640275
C 28.76876854708052 3.592726934969165 265.58435126711834
C 27.17171138522404 4.08821776481255 262.1617299910101
C 23.92931326706793 2.5391172289528448 263.4037164169952
C 23.96807688774776 4.553247262775566 266.6347783120394
C 24.699263280690843 7.853615265907634 264.8782610265525
C 21.96525189927706 7.2951588247260855 262.2801513220742
C 19.41384227492751 6.646688359791114 265.0211058790175
C 20.66494374369376 9.66448579145009 266.9696413416211
C 20.170969109367434 11.768245351412881 263.8353304727399
C 16.675024328138676 10.352793072549044 263.3694249428901
C 15.910328243350294 11.31366220141818 266.9852346693451
C 16.90360684056128 14.952109929157201 266.519434916565
C 20.01380852433816 14.797111799800911 268.67676106049436
C 22.635983920240907 17.4922636289425 268.0898549850365
C 25.642278236055244 15.437993737415844 266.986215880786
C 28.646082753617026 17.574657451584624 267.88339248824656
C 31.13258133865799 15.849592779128256 265.5649596044595
C 31.83758527898193 12.687440450596668 263.6120545876209
C 32.226378373281335 9.413849530982958 265.43080543146846
C 35.49103464239992 7.971261260018709 266.69644529663725
C 36.24572614504647 4.672785504244224 264.9322301490434
C 39.19699524647825 2.7858141537866032 266.4219392217811
C 40.87710955929785 0.1175922707164192 264.2973474193565
C 42.65580516631019 -2.6925972194843224 266.0946335001271
C 44.08102994947708 -2.0801492007769995 269.54578860940404
C 42.92966812998386 1.2389165612543034 271.05981665454635
C 46.09899798292349 1.5489278171421326 273.13898751725554
C 48.07386250331067 1.8012015696294301 269.87303722885133
C 45.801662979805165 4.665563943089683 268.7063487902389
C 45.683514067427396 6.762898016972896 271.88838800866256
C 46.60586976174786 10.03720059695379 270.1549760339867
C 43.358518717255045 9.879905077724557 268.17292788120096
C 41.191715075491175 9.054072113835934 271.1989336052568
C 42.61788257846343 12.02396436887263 273.0964508093674
C 42.40409829066807 14.195459161030543 269.98535265783096
C 38.75825246769579 13.247996815215796 269.47577903533977
C 37.94226167010968 13.912922951565063 273.135126631386
C 39.53834849991364 17.34114298328817 272.7292207474346
C 37.23808213586619 18.17458238419993 269.8192386617587
C 34.15017230626419 16.8845179439867 271.64689861683706
C 35.205947671752774 18.96297936128523 274.6656998983729
C 34.0909325640199 22.160166365012202 272.93721997710924
C 30.441785303804366 21.082004910883807 272.87030044859034
C 29.830009990779157 23.361773174889255 275.875498606222
C 31.672987176596344 26.71954446045232 275.77038910735
C 34.72572956701144 27.151579404030688 277.9922849739511
C 33.17630109225283 30.10418170540254 279.8259651638338
C 30.144187924349417 28.073942753537175 280.9073550614802
C 32.25136557494743 25.19590382638321 282.2194964277304
C 34.72820226852172 27.576991897372473 283.85433637555707
C 31.939519812965163 29.508919017188823 285.57170021331035
C 30.577051743785212 26.214262581393655 286.9277274486882
C 33.85011843018864 24.923097517867625 288.3592638819072
C 34.53217283813974 28.355178612757697 289.855710604692
C 31.08627498077864 28.245387809412037 291.4526051504599
C 31.58317049934931 24.62432600777652 292.54272713217733
C 35.026401749009615 25.38838624792957 293.98156431427884
C 33.77961646507529 28.340487542617268 296.03570669478034
C 30.950075024888193 26.398796695068608 297.6739374893959
C 33.44128860441694 23.72185103735323 298.7117131506848
C 35.76295660794294 26.296057401701553 300.2978491944733
C 32.73775848616932 27.714693832212127 302.1146557776406
C 31.368222577835457 24.39902633858618 303.40521768933183
C 34.81155639121604 23.38424502614814 304.66613049171025
C 35.13924763805348 26.749681824104254 306.4050011247742
C 31.765986953448415 26.330341225126524 308.12570998413935
C 32.59932060925608 22.776506828982185 309.2057537564792
C 35.92185953387896 23.685858882711997 310.8148057192551
C 35.46640849430902 27.20506867893339 312.1767006391009
C 31.71368567054333 26.964694212414926 312.73641824027044
C 31.854009144052405 24.968913321461027 315.9803822138164
C 34.37958956640572 27.369311055784788 317.5201019772033
C 32.1023140357217 30.279472419386494 316.6062909412357
C 29.211093010138317 28.50420503456273 318.32525559397885
C 31.398397083999882 28.216295339287523 321.4276598229744
C 32.06441286084069 31.96015731016914 321.32480492987287
C 28.320269176028436 32.549814769065584 320.9847917383141
C 27.778507770409323 30.478907019656823 324.13099981342987
C 30.348202281823216 32.69358915370679 325.86582850614343
C 28.899878889145285 36.13283532563298 325.1141494354571
C 25.165093079254035 35.68641296609909 325.6960062816923
C 25.18125199233533 33.280289994847344 328.6333269846324
C 27.803035296424774 31.445286079875682 330.6590901067755
C 29.867631879964307 28.449253418718197 329.5671775267617
C 29.42704431340638 24.814233600684627 330.55889936037954
C 32.0295355879835 22.37650326566625 331.81824367896866
C 31.296325587247107 20.372421313193325 328.6644886531051
C 31.699310464225785 23.262010221939914 326.2164658720594
C 35.1038947136922 24.10552525719521 327.7202534734677
C 36.17867074234212 20.515764516131746 326.9323851035045
C 34.994181043823644 20.21924759078614 323.3221573653869
C 36.65591447837641 23.600693736801535 322.74606176355974
C 40.06297425959403 21.899903495039187 322.88441704944313
C 39.025689926896995 19.768889673374723 319.8959447165469
C 36.96280157928787 22.402920168348796 318.080999906447
C 39.98980826878108 24.708887759947316 318.0584715964891
C 41.95599501706576 21.920142218837512 316.36340436400025
C 39.263898429796456 21.85053715951312 313.6794833259814
C 40.216685645944295 25.470807617609456 313.0005638534155
C 43.75331669435265 24.349913917813865 312.1213218808177
C 42.86333247612518 21.581632432202525 309.6752125068232
C 40.818634408129 24.09474299947508 307.6895168610627
C 44.15932299143513 25.700938728922743 306.83288543887136
C 45.534863067506556 22.258034716243195 305.898458818133
C 42.818049703243204 21.055020348218058 303.52432700693737
C 42.495390329314766 24.36926799229366 301.671397269342
C 45.883710180495065 23.862696735542542 299.95266631863564
C 44.615248895046186 20.34418130009814 299.22702252937717
C 41.424868666664295 21.77483863323438 297.70872124456156
C 43.38809936738344 24.18189775077715 295.5150830193847
C 45.46033906911948 21.293605111260064 294.1628273166979
C 42.497669826101124 19.100101568261223 293.2196350715589
C 40.40730697105898 21.73799124075299 291.4167186647361
C 42.82365836341864 24.347600584228378 290.02637359639704
C 44.17304446734683 22.547645923963646 286.96537034524124
C 46.432054911018795 25.51593590571844 286.16964593254175
C 48.09067205730979 25.403055865310872 289.5960774281587
C 49.0943060929438 21.77355826517789 289.0465778952217
C 50.90253764433873 22.72087548754003 285.83735208392994
C 52.62310928681207 25.707120384603982 287.4582756770559
C 53.73872324134622 23.2703306092962 290.1670484854647
C 55.150903851041186 20.810100172294902 287.62478974236814
C 56.852558731013865 23.778600193487758 285.9287565668924
C 59.20940462186602 23.785062430924583 288.9230512479106
C 59.34813143952756 19.969817075837643 288.6814214884262
439
Mode 7 - Frame 17
C 49.234504911881125 36.155035552896294 337.39598895507874
C 50.6659366145707 33.97784916527453 338.7410249104126
C 50.50441384562866 30.729978517869775 336.8065349004668
C 50.26760027501349 33.090986064944 333.83105401330323
C 47.52053993596205 34.00114956946312 331.3795288023848
C 49.03525987512085 32.25341343616294 328.3646874833084
C 47.91456393758303 31.418675860785317 324.8421388398732
C 47.00102295891089 27.740813573294353 324.38057127955074
C 46.715015095141645 27.251132865637622 328.1648097562577
C 43.36474509649427 25.4613054093827 328.14908342192183
C 41.5895843975423 23.420744302091773 330.83654490266326
C 43.165622988805154 20.17032823917587 329.53068782820907
C 40.99699323419899 17.51751432723488 331.1536698570495
C 43.27481110201478 14.469590045857144 330.86242181193444
C 41.901350040830714 10.955225501576031 330.4220321102167
C 45.40022580357647 9.524843773930435 329.8530689100706
C 48.96151541881199 10.703166917029705 330.4930719809335
C 51.76748732452403 11.116192497696233 329.4764671333251
C 51.32759396450677 9.323726831380664 326.1477889739169
C 48.57950695825379 11.817517771949616 325.3557345861324
C 50.81504587086446 14.699152204451725 326.43140066033163
C 53.74343481207757 13.284062113814393 324.4517242423811
C 51.89067041901636 11.872617231983998 321.4384570872542
C 49.39416924555272 14.729631459674515 321.06255907098506
C 52.26731021881861 17.2033485734415 321.34681260945604
C 54.329833985384475 15.691558741714408 318.52308525778534
C 51.16004979667116 15.032508650336796 316.520280275314
C 49.82634269390253 18.582140614539934 316.8450101347421
C 53.235841623174906 20.148864240191223 316.2090915420044
C 53.76695274254221 18.020634936040786 313.0917900095644
C 50.29202389935339 18.90227963600948 311.81475622298876
C 51.02059974733171 22.59420819879691 312.3229798263046
C 54.4071916253723 22.626689227354078 310.59523848893184
C 52.93773742220634 20.64922415667119 307.69006964434635
C 50.33966113376121 23.39546829871785 307.2196662969353
C 52.89885933787895 26.21147618987044 307.2926853735908
C 54.95374576410295 24.488322260356203 304.5963343625013
C 52.042113443659076 23.46665830410848 302.37610737567104
C 50.53146450316189 26.960987512009016 302.5229400824566
C 54.022263871172534 28.34781633630558 301.95031131250596
C 54.09998423007388 26.061684930340512 298.90522590476394
C 50.894266344377115 27.624678159616767 297.5546191596381
C 52.32787607175535 31.103597720378986 298.1299247732257
C 55.41567016253023 30.051394830857127 296.1579264373636
C 53.90357751166439 28.757207874373062 292.90705342278335
C 51.70950703652471 31.86289484166643 292.6271784008489
C 54.43193224695257 34.475509888538234 293.1211464222485
C 56.79856677102124 32.279035452070886 291.09132855663205
C 54.73656789476015 32.14085435360202 287.8868478638484
C 53.4984331177411 35.2047287699411 286.01150723003525
C 50.61623918657148 33.378208877285495 284.3144139869912
C 48.91438320835035 33.2891633962949 287.74660387699845
C 49.89574398197619 36.51687945113505 289.5355015104411
C 48.18497957831908 38.387350702431554 286.67947502947663
C 44.9198499570115 36.45993932247565 287.1576344134154
C 42.366468168713254 38.035334783431594 289.5435928405629
C 41.25752823922052 34.543497653873 290.60877215670035
C 44.685257655160385 33.78469872070167 292.10829332431683
C 44.652864800308116 37.01077311390578 294.09313465222203
C 41.83588891299864 35.14180677174095 295.872052064401
C 43.70481240387562 31.86729912806563 296.46399759809435
C 46.91855251827211 33.6326868531163 297.44903482084203
C 44.93348569360922 35.763970035106524 299.89086631446054
C 43.4032358289454 32.641595576089586 301.44807768563726
C 46.72507565523091 30.79757817411952 301.555930263849
C 48.528521911798016 33.68353006370192 303.2667137085905
C 45.59724598721849 33.87398120205444 305.6874428881106
C 45.87148900549595 30.13212058115316 306.33778751402946
C 49.62777012738393 30.60567189182074 306.74120237885154
C 49.32777424568471 33.555220953935894 309.14406991204095
C 47.298371835035155 31.333530961943158 311.4616438040796
C 49.291865546002484 28.128675206500432 311.03695365661576
C 52.47558407414252 30.091013334930516 311.7827896483717
C 50.974202093338455 31.520268403531844 314.9773059476151
C 49.86480955388974 28.013022120714425 315.92780367162095
C 53.320643842590066 26.44857503420032 315.64896996483185
C 54.95411385764833 29.49569044043081 317.2397118928457
C 52.645674552981994 29.59374319525161 320.2655219943571
C 52.73792608567322 25.795310254920825 320.5538014181216
C 56.54101144433176 25.58761186063575 320.6780007790311
C 56.7257433345211 28.774813896160488 322.77169630395616
C 54.53810205919795 27.331278118037805 325.5593714995271
C 54.4570852241526 23.520925168385567 325.34984064660927
C 58.257805785911394 23.323215387720747 324.9299827248504
C 59.742029220308844 26.42446766519133 326.5777844808581
C 56.83595127381616 27.127902593237692 328.97288400657567
C 57.42150238741293 30.863108166760018 328.5592178442499
C 54.899497215029236 33.3853849312038 329.85973797609546
C 52.714835276531076 35.746539778212366 327.84710612773597
C 52.19659879606222 39.360525262147874 328.86667457312
C 49.02468015452018 41.22050765612017 327.8727299803066
C 50.2851607384911 42.484069767327135 324.5093477788621
C 52.15441250477759 39.320152524576926 323.4977654246323
C 48.97798456493882 37.34448213620745 324.21311870654813
C 46.60940932787587 39.57259412812572 322.2287891977449
C 49.04612384910837 39.70891353492763 319.3065601416904
C 48.94500252010941 35.912421949070854 319.0407653492475
C 45.15827368429349 35.83701686591725 319.4000936882727
C 44.75025610531004 38.79644667265791 317.05388918720297
C 46.83906690458744 37.029318811312535 314.4315691765409
C 44.49906113009647 34.03849839558061 314.5430313439184
C 41.53912564414194 36.42460226727621 314.57603931107184
C 43.00178009586858 38.23291311919334 311.55658116366203
C 43.549358389292244 34.933511267305775 309.7301440636034
C 39.848504125855186 34.07090094446658 309.90145083130255
C 38.75403031139361 37.64866611945867 309.2208646360207
C 40.73281944115144 37.83381513663376 305.9781848555929
C 39.4260276220469 34.37012907909206 305.0761705307761
C 35.8262862021533 35.57455802744111 305.368563603189
C 36.82839615888719 38.865950818644265 303.7533986968145
C 38.2693762842943 36.932816036669955 300.8106886017845
C 35.09098637231833 34.88075141449679 300.3532227214754
C 33.226156875315056 38.19694593596598 300.3855339544535
C 35.32478144709995 39.66787125185766 297.5680026313439
C 34.8898765944277 36.44474061299733 295.6010573742789
C 31.10913957905985 36.79216552498907 295.85551228643743
C 31.416258020317375 40.30523098520363 294.40501602283314
C 33.51309667321399 39.030780212249326 291.4975418263909
C 30.873017309009164 36.404528261444106 290.7407268427419
C 28.107188332320227 39.001107869076584 291.0221493071588
C 29.895977869808327 41.077884303250784 288.3733323460678
C 30.348469899116417 37.99247142950487 286.18454126365566
C 26.618941691744197 37.25355397079131 286.44996827922023
C 25.2800451126048 40.78586646623594 285.9585124802888
C 27.9427090780588 42.05107962196776 283.50027758177447
C 29.07209550699188 38.95292131014357 281.5810359259688
C 30.070491264525504 40.96490866447681 278.5084830202833
C 32.35033652885288 43.52320421613 280.1880939181635
C 33.40616971930825 41.395692310295665 283.1814608450713
C 36.986049293832416 40.96752095038204 281.9431744478462
C 37.55000934631728 44.73188478004778 281.7394386271711
C 35.83671207332419 45.51021494991614 285.07152562434237
C 37.62586578871215 43.04449420146955 287.3748398579725
C 41.29740474930879 43.61929885959389 286.5436565763852
C 44.61779803037678 42.94263748170185 288.24147460476144
C 44.947906646114525 46.50052037177478 289.64011670378966
C 41.307923878101974 46.43789686188889 290.7601982560889
C 41.71044567916832 43.096877183676554 292.53672174529044
C 44.88994671113002 44.15204051934829 294.35680833518035
C 43.21731765097319 47.283729226198055 295.7307915454287
C 40.16916820029852 45.338975998947134 296.91951039972633
C 42.27379617900532 42.72937775696339 298.71728997070966
C 44.72517588552531 45.23660833915908 300.2026852001985
C 41.8007942700313 47.22455855772272 301.6066945567538
C 40.12608501954119 44.07660829457924 302.8918375516091
C 43.227384499284256 42.947671923819144 304.7847246413645
C 43.70956047971262 46.33290042881202 306.4472951322795
C 40.090957476718984 46.132940033579196 307.5958061125765
C 40.74669743159953 42.55985580986108 308.73266932403385
C 43.9812240458893 43.49505843869233 310.52150007501075
C 42.36140624784159 46.49942587659377 312.1959660772909
C 39.879753973564235 44.285712932594045 314.0377741454495
C 42.63490889291281 42.104427524052205 315.485696511169
C 44.600988277080134 45.146731653132925 316.62626775996404
C 41.507199880492976 46.84086914054246 318.1453545602482
C 41.478427253948446 44.38241966651066 321.07487360970475
C 45.25963330936273 44.55882847502974 321.28164536508086
C 45.02561472514551 48.334773979417726 321.2156584416798
C 41.98512834557213 49.36776879165831 323.275939027582
C 39.1444550332978 46.9211255962587 323.9765488746134
C 40.19481374961679 44.93987839877054 327.0585058931177
C 39.36932466645395 43.57129248956309 330.46466036932924
C 42.37246912597055 45.34914394669192 331.9721211272481
C 42.06514757400704 48.67877601631065 330.17110255273946
C 38.256233951739596 48.91708329468864 330.32938486325696
C 37.60556901348325 46.994194930753004 333.57945931525694
C 34.8601112721358 45.2963838605277 331.56661074755317
C 33.36633661207274 41.82390072091712 331.8611838583661
C 35.95459671359058 39.260963855502354 330.83711372851525
C 35.44192773775092 36.33552671108491 328.4708542143472
C 35.221178763221594 32.90355965568137 330.0863365882188
C 37.29903686819072 31.457251515820154 327.21630668023425
C 40.01948062749365 33.95861873511597 326.34319011109625
C 42.034381573674686 35.99829894669556 328.86299301011974
C 42.16801786283402 39.79161720757714 328.50170447082087
C 39.27405655259901 39.74085927017948 325.9859371899845
C 36.29822036639251 42.081446779508255 326.29657468990604
C 32.87605101099939 40.46983917546067 326.0090412088436
C 31.388538384695583 43.37513730981765 324.0606765201215
C 34.244583201548906 43.22040241463821 321.559866840828
C 33.270890868285974 39.63782269049012 320.7162829380577
C 29.671407084389227 40.662507234767055 320.0460271586336
C 31.00935428444351 43.15462804579703 317.501246237685
C 33.412100228008875 40.56391588966637 316.07939884934433
C 30.87103217507184 37.72382098101033 316.0306111164733
C 28.15684065657369 39.90878049562823 314.53253816733553
C 30.435560971322563 41.18542454225607 311.7663686517241
C 31.541714919912415 37.74016935897163 310.59218124299895
C 28.084172593339424 36.2241028490118 311.1294102559122
C 26.464311670067044 38.83241826008676 308.8717402019036
C 29.190493195375815 38.41577876117156 306.2586543299063
C 28.907704160139 34.61903681717065 306.33849481830845
C 25.106724741009156 34.743222069279156 306.1517078155955
C 25.445268660649287 36.84264605158224 303.00193610100877
C 28.219504748392815 34.66447238442214 301.5497728752925
C 26.092811326466638 31.54943689511584 302.04570587769376
C 23.170717560612022 33.17781569086292 300.23681212032926
C 25.439877384065234 34.57706565968945 297.5246200624985
C 27.27546744700618 31.315356937698674 296.83887370893177
C 23.932431180519632 29.53759639120975 296.4033731564101
C 22.733900448555865 32.215955274915245 293.9748288707717
C 26.077070382485974 32.10068883824066 292.13654594693884
C 25.886573444422474 28.319917389497185 291.75081930719483
C 22.21706439403383 28.502448368016655 290.7240729942713
C 22.96545522341111 31.14138099686928 288.08908795652
C 25.87696293285258 29.008389689372695 286.87849288245116
C 23.456594465536273 26.17143649807655 286.08584827190083
C 20.86539645413015 28.401101412679896 284.39067422475796
C 22.815647035832033 28.554113475980085 281.1188761347936
C 24.433161309612696 25.118868841148373 281.2154382977126
C 25.186432077490313 22.27151144676974 283.52818519780976
C 28.6059681774489 20.747887560897727 282.9487831206893
C 27.82549159127651 17.02222717932198 283.18433905004207
C 28.950826570358362 14.465330580767633 280.6179888777149
C 27.51074338543473 10.96071933491332 280.34454071243556
C 29.43550428732683 8.077958020401859 278.7952022485074
C 27.70100601269692 4.760630926556432 278.0746512402129
C 29.877751842541837 2.0066036716564573 276.63094358518595
C 29.34879341935021 -1.5549488121064592 275.4986030725109
C 32.48160075983776 -3.709700875309686 275.550413554319
C 33.2550946987602 -7.419278866360699 275.935742271853
C 37.06035881679355 -7.522503202456571 275.7198356033669
C 37.522687187728536 -4.023861566663371 277.15893973277423
C 38.75365701233891 -2.0866312709518002 274.11857530974623
C 35.749862354104486 0.23385230399961823 274.1483516188296
C 35.91569704390727 0.41476703245191604 277.9572067241684
C 39.53953533317314 1.5525885389590162 277.7515774973265
C 38.53030605677596 4.023886979736396 275.03605407728264
C 35.74755558865555 5.46021360172459 277.19670308195504
C 37.97658558532916 5.672338942277104 280.2819988150381
C 40.551915232866406 7.580933918533839 278.22384319427414
C 37.91222592007029 10.035725831893366 276.9885230280573
C 36.625566773528945 10.253550854670145 280.5651746484101
C 39.85180397924087 11.6861513815733 281.9973690818777
C 40.35150913086001 14.2593861573475 279.2222057116563
C 36.86530530043686 15.645249741110007 279.8746688833853
C 37.38797846643442 15.421752498131568 283.6429124772366
C 40.44558409200559 17.66701999452548 283.3290195873197
C 38.59487306918782 20.066073224321258 281.01529986894343
C 35.914302137997595 20.881333806853608 283.5981960775408
C 33.13922329432048 18.335766692704517 283.02351400832623
C 31.466452231324787 16.364831751670657 285.8020812992016
C 31.9686676718307 13.03494763658151 284.0309463454006
C 29.667452922028644 10.06059255143102 284.69728158482445
C 30.827780610626593 6.820316450782825 283.05484949718476
C 28.49749155203216 3.8100656179154093 283.0260795327018
C 28.449191806960833 0.3725710592282319 281.43090479311377
C 25.509845772628108 -0.1463858133884905 279.07049759985193
C 24.519330045721016 -3.3304057397622713 280.925571754807
C 23.700290385443044 -1.3182193040372394 284.0751827268884
C 21.48486284660826 1.4918522020290745 282.7168184802911
C 17.79726679889806 1.9307369669564578 281.9521804687696
C 16.99839993003495 3.780572695132199 278.73530430987415
C 14.057303265048827 5.799148137256916 280.0666079550017
C 15.207029668656483 9.349692124973942 280.7488186464049
C 18.842412308392902 8.235921832745333 280.76141261429257
C 20.25844032789413 11.400932320649067 279.1840321043248
C 18.36819861718584 13.78825335772556 281.4739621095854
C 20.55399613081622 16.1089067014727 283.524059746122
C 23.487765140144187 15.76532928831865 281.11417580452974
C 24.259909208443485 18.221246316176398 278.3241043416198
C 26.934192595037338 15.99933809069646 276.77385196512625
C 26.36669083041387 12.295703490906856 276.0964351959114
C 28.941996788686037 9.971932399792372 274.5336186461204
C 27.768199709835027 6.542754893506846 273.41475296277895
C 30.439095328833297 3.9375675421184373 272.6954133019818
C 29.871683875787802 0.4829464438528631 271.26632592824683
C 31.924126629411838 -2.216126867111769 269.5587337004804
C 30.778319243139844 -4.082495589244578 266.4492743582826
C 30.21539941324882 -7.8532010108951456 266.4421014256787
C 28.948731867466776 -8.708225350252814 262.97430963021964
C 29.797461038935435 -12.409709234306238 262.6843424292481
C 28.315156214318502 -12.50441948998174 259.18953473892594
C 25.988927060503627 -9.493524447354748 259.5728985198975
C 26.282149839211865 -6.266879434455962 261.59028396981466
C 25.571043134955158 -6.390682848018707 265.3158953185476
C 26.056234724903398 -4.118672306720412 268.3044924492351
C 27.836594305794243 -5.321517325760855 271.41493460310465
C 25.21558582172611 -7.2886208367674765 273.28897459092076
C 25.07167177501319 -5.111571021614447 276.4032018170808
C 24.2296504189703 -2.087870482625739 274.2366535810199
C 21.297084307155497 -3.5458121044187028 272.2846191795016
C 18.63201191071975 -2.951478047147306 274.9991491056208
C 19.62867567452425 0.718901487065395 275.0684995915878
C 19.75478145000978 0.9177803579696825 271.28123547756877
C 16.282541738718667 -0.5945350037193277 270.93830545444126
C 14.783987990305105 1.9751866474363164 273.3375256656522
C 17.004903939949322 4.911837175520689 272.4096078183542
C 14.026037159764355 7.199193117046252 271.73558194890586
C 13.240188487951304 7.110798390165106 275.4811229849225
C 16.608273628188005 8.554153720842256 276.5317275147327
C 15.876072939335408 12.221564874480212 275.82223855938514
C 18.292779429572867 12.572675949683306 272.88990427804924
C 16.326108899538113 15.174270474010427 270.9131451960221
C 18.06157122118637 18.533891947538883 271.1006243669555
C 20.87732593540748 17.140190427366548 273.2311678549822
C 24.575644454618743 17.16254518414999 272.3370612219719
C 25.889042429228187 13.657080135875992 271.60508107372067
C 28.789032728392332 11.906814032158614 269.9045951033495
C 29.694593629209443 8.285464400730987 269.284694626365
C 32.81535723649601 6.150534186087138 269.4936168122281
C 33.54825071974257 2.4704376858473034 269.07312765488257
C 36.19976496096742 -0.19441106924875737 268.5676810916481
C 36.259784688411735 -2.3533204083923023 265.4573206798784
C 38.57620143701884 -3.9118184705217613 262.8953444630261
C 38.877745520132905 -3.013802968423537 259.2244702506711
C 39.11899069525788 -6.618079547719796 257.98378486465595
C 35.35000725872975 -6.887870226588513 258.4879283552909
C 32.996997508325876 -5.636644029052442 255.81279574274728
C 31.419792542180687 -2.9114462922023154 257.9664747955745
C 34.20932003750133 -1.2958772381538999 259.97194499813014
C 32.649626158375455 -0.007875710166610067 263.20227204845776
C 29.166711740355467 -0.5019673896967816 261.78304570042377
C 27.88905742038484 -0.09590262523741293 265.3432382786667
C 28.772372390570123 3.602985051406633 265.56651757335015
C 27.178129450708994 4.103726735481323 262.1433021738807
C 23.934394318869106 2.553573762459937 263.3804941430933
C 23.971019300736398 4.563046670996017 266.61448411367553
C 24.70429653075948 7.865679184160342 264.86320992176854
C 21.97218685575724 7.311567726474466 262.2621264218197
C 19.418472919204874 6.6597784725753195 265.00016863618157
C 20.668715126863926 9.6745133034974 266.95399763511097
C 20.177633635214015 11.782824407813708 263.82225836941467
C 16.681741659431225 10.368852207245592 263.35166170490885
C 15.914467321696966 11.324814708672934 266.9682457688874
C 16.90896863528543 14.963690596300347 266.5083752827715
C 20.01745059788741 14.804869075025788 268.6679259069785
C 22.640750019251783 17.500166097646918 268.08684742231833
C 25.647325787867086 15.446594405349874 266.98259714573993
C 28.650943366511232 17.581023940589 267.88472411807487
C 31.138875041235853 15.858766307777348 265.5658772695994
C 31.844839044874142 12.699337193806354 263.60923790389637
C 32.231521685841976 9.423268590198669 265.4239253001051
C 35.4948929515666 7.978205168131209 266.69017706526444
C 36.25024573487585 4.682143334996916 264.9219309922531
C 39.19985958631262 2.7923304963547944 266.4113618526459
C 40.88103951113453 0.1267653131737092 264.2842915219996
C 42.657531438190475 -2.6864742712011296 266.0789822948338
C 44.080102294816825 -2.0793355855626316 269.53219832477095
C 42.92839446907845 1.2378804739807097 271.05007837015415
C 46.0961271683985 1.5440773130141878 273.13228151365666
C 48.07373101588645 1.8004380344973479 269.8682913546159
C 45.80325327941299 4.667059534361716 268.70381345106625
C 45.683049372439974 6.759931605489042 271.8887590594847
C 46.607657805935226 10.036436131656659 270.160690886612
C 43.36188364968137 9.88268318961244 268.1757277999439
C 41.19239889875207 9.053184780749731 271.19887011228246
C 42.61777028881146 12.020105114190633 273.10166339220956
C 42.40706117116668 14.195898254520754 269.9933402644342
C 38.761362786946194 13.249906360024879 269.47939290870136
C 37.942511903979934 13.90998038491205 273.1390729091787
C 39.53963806391023 17.338410831916132 272.73899479916173
C 37.24198586280678 18.176095610617203 269.8280735496665
C 34.15224967232075 16.88405695613434 271.65158314061216
C 35.20589763050105 18.958178148573996 274.67401956944013
C 34.09278066571866 22.15745657347066 272.94794958737936
C 30.443492581265645 21.080097016735493 272.87728183254586
C 29.829063249711854 23.35581849191547 275.88458207777273
C 31.67201861843549 26.713371058959986 275.7831930464608
C 34.7245146580407 27.1416142381088 278.0069019211951
C 33.173720139725 30.091923631787985 279.84123257339877
C 30.140542454697137 28.061456171400398 280.920126442689
C 32.246933696508094 25.182423723194415 282.23144670160445
C 34.72361422093111 27.561683425645167 283.8680461827088
C 31.934279136400598 29.493540850491613 285.5848016615581
C 30.571363454909914 26.19825666829545 286.93989864679565
C 33.843537617999466 24.905977460110073 288.37194806852796
C 34.526600351214604 28.339092400855854 289.8678656949666
C 31.080800172368946 28.230457946468373 291.4646593953584
C 31.577595775850106 24.60933704422537 292.55585432280844
C 35.0210481684509 25.37441118694918 293.9945358029348
C 33.77542451166132 28.328521939663595 296.0469017508238
C 30.946321590022894 26.38808302832214 297.6872658436257
C 33.437739414630116 23.712145633074247 298.72673956128455
C 35.76004622672259 26.287505637860093 300.3101368174908
C 32.73561493724902 27.707706979015466 302.12675843706927
C 31.366522837548523 24.393313754840946 303.4207265878188
C 34.81017587506314 23.3796978674705 304.68155600353003
C 35.13852815793427 26.74650866841753 306.41743403800945
C 31.76597447709374 26.3287549466747 308.13977707138554
C 32.59962720634922 22.776035211904347 309.2227315886083
C 35.92268150200291 23.686680228128104 310.8299206527346
C 35.46775543065803 27.207046946670772 312.1888461993287
C 31.715297669195174 26.96727067481906 312.7502063342547
C 31.856886774070247 24.974568202398938 315.9960484462785
C 34.383022251534854 27.376302583349442 317.5326313351325
C 32.10548323217986 30.285661962987685 316.61708841415947
C 29.21500713609315 28.51205146974295 318.33888815009493
C 31.40355828953088 28.227097018047136 321.4407226461377
C 32.06958915368886 31.970826992345174 321.33418133726104
C 28.325308063780113 32.560156880827975 320.9951118258793
C 27.784731120024013 30.492206235821357 324.14343147263287
C 30.35508978937037 32.70849698659154 325.87522745940595
C 28.906457137826347 36.147022276348004 325.1209864062779
C 25.171876156908294 35.70115231162003 325.70461894565767
C 25.189143333008158 33.29778062915472 328.6441589256834
C 27.811675707039623 31.464685560717385 330.6706518178702
C 29.875886505353815 28.467665370650252 329.5807354275727
C 29.43569334691747 24.83358289592775 330.5760164328198
C 32.03865442501529 22.397066735438766 331.83664631682495
C 31.304287306380917 20.390037526604832 328.6850381489555
C 31.706301426085403 23.277320720355487 326.2341246969008
C 35.111444390513014 24.122284576555472 327.73579659215204
C 36.18600623643558 20.531796342463466 326.95092298496576
C 35.00009194637225 20.23191619828593 323.34143375718065
C 36.661570465666955 23.612832696393536 322.761421550979
C 40.06868741537612 21.912243045427324 322.90011659504785
C 39.03017488148382 19.778347120567055 319.9140614580739
C 36.96643701131885 22.410494187335566 318.0972568354076
C 39.99345009794233 24.716430786935263 318.0713544195677
C 41.95885913751406 21.926015993238188 316.37813548337533
C 39.26571388910113 21.85391972818234 313.69524625152167
C 40.218297621072196 25.473492528856937 313.0125786061487
C 43.75457584284388 24.351744188235266 312.1331052363167
C 42.8636504214483 21.581280928881586 309.68976015410044
C 40.81828479437707 24.09258464070339 307.7024429704359
C 44.158675571393196 25.698011250081173 306.84329513182996
C 45.53377582441868 22.254242734414103 305.911329421331
C 42.816184643813244 21.04930203591254 303.53898415012435
C 42.49289471376107 24.361873910426382 301.683252718525
C 45.8805641418888 23.853800068383894 299.96382276316575
C 44.61166173137865 20.334791724497336 299.2413885021345
C 41.420917892419695 21.764165071754597 297.72279910009536
C 43.38341291592806 24.169368132716908 295.5266379528415
C 45.454925548082585 21.279839348232404 294.17605031330527
C 42.491616311177175 19.085854269480045 293.2345868154653
C 40.4009064595994 21.72172584590216 291.4298377579937
C 42.81759388678643 24.330961606417638 290.0382064072564
C 44.16639292484694 22.52913771392124 286.97815634223747
C 46.4254133557523 25.49674870863519 286.1798265867466
C 48.08462067607998 25.38589597541317 289.60571442434997
C 49.0879047417469 21.755922522660764 289.0586060760668
C 50.89540142942821 22.70067421764122 285.84820802731883
C 52.61651973085576 25.688109603793745 287.46618966731336
C 53.732720807164846 23.253433455753296 290.17665780389666
C 55.14411783784296 20.79107006255049 287.6360642164213
C 56.845442681189596 23.758135661207767 285.9371304297929
C 59.203097493404634 23.766952524490303 288.93075061765336
C 59.34156306810678 19.951472537511062 288.6923438030018
439
Mode 7 - Frame 18
C 49.24496753352657 36.1786429982897 337.39553891380524
C 50.67703652273844 34.00270901960779 338.7419262484657
C 50.51483593141721 30.753115450648444 336.8103339972179
C 50.27676997045197 33.11145560768915 333.8328585555858
C 47.52879252317798 34.019466267621475 331.3815446851117
C 49.04249755047364 32.26917683853652 328.3676642486743
C 47.920601583998014 31.431440200565504 324.84620676509473
C 47.006819802246355 27.753194087437876 324.38794756877047
C 46.722143812829685 27.26677137908305 328.1727373223028
C 43.3717536310603 25.477020726346094 328.15935842788963
C 41.597411650810834 23.438880605650354 330.8492509497219
C 43.17302229510182 20.18738909296086 329.54568311950777
C 41.00500247084509 17.53599338816139 331.1717730232658
C 43.283184391993906 14.48810281102812 330.88308531651694
C 41.90996322589856 10.973130874104825 330.4469733978998
C 45.40878368754845 9.542579229977616 329.87802657828513
C 48.97020221773788 10.721936461926008 330.5153602666414
C 51.775716493078654 11.134083179376198 329.49715081158723
C 51.33453522646137 9.338294359058356 326.1703964110577
C 48.58596436665435 11.831101992260052 325.37698243920374
C 50.821743162689124 14.71390907627685 326.4489388754806
C 53.74941498151432 13.296998384437082 324.46940649195886
C 51.895420088257026 11.882684725200415 321.45824604395193
C 49.398695830003476 14.739260161086271 321.08061292356507
C 52.271899553980816 17.21329648004997 321.3614183190913
C 54.33332108737696 15.698929450030974 318.5382574548861
C 51.16274271183384 15.03807656211757 316.53731977918954
C 49.82916598491722 18.587989829325984 316.8592586428973
C 53.23844187513004 20.15414530896779 316.22070553713525
C 53.76826708178295 18.023143186405186 313.105050284713
C 50.29292478735884 18.903739483673473 311.8284465837951
C 51.02175695961325 22.596081372882544 312.33320871928316
C 54.40772204750179 22.62699601961392 310.60424714437545
C 52.9371754173871 20.64709830986776 307.70122876738026
C 50.339065171055154 23.393006000715484 307.2293105052795
C 52.89835160076179 26.20901740441661 307.29922219910117
C 54.952297222661564 24.483569332521945 304.60360519404213
C 52.03993831573676 23.46027445810107 302.385057669337
C 50.52944564056708 26.954750204636735 302.52959028522645
C 54.02015570228271 28.341057709460703 301.9549011344956
C 54.09686133615879 26.052642186907864 298.91155820925684
C 50.890823901660134 27.614742152558293 297.56068138676505
C 52.32470503387909 31.094071032716545 298.13300716224325
C 55.41196234442587 30.04044245730364 296.16100956713035
C 53.898938202544194 28.743946657312367 292.91152845163504
C 51.70483635716473 31.84949428595224 292.6299285609339
C 54.427450839343486 34.462383105503825 293.1212115984378
C 56.793477556069256 32.26436211083738 291.0923650551794
C 54.73058893020428 32.123874776409764 287.8885606438747
C 53.49194903567352 35.18635791762172 286.01128788585197
C 50.609223656006584 33.35871635798961 284.3163787625271
C 48.90832203527403 33.27232138170165 287.74909830220963
C 49.89028852312949 36.501246420191876 289.53527962032405
C 48.178738739463824 38.369701812656345 286.67835110221466
C 44.913551420484154 36.44299756704511 287.15880705643417
C 42.36088993851436 38.02034955713726 289.5443018535656
C 41.25242187280443 34.52947517507633 290.61267686210977
C 44.68047596994454 33.77121086666186 292.1115397646035
C 44.64879849542193 36.99865374884592 294.0940848390875
C 41.83227846617554 35.13103776333385 295.87519111389076
C 43.701167900936476 31.856749279720294 296.46889290289073
C 46.915237458682675 33.62275471575097 297.4517210698902
C 44.931031138506206 35.755944448713564 299.89258730731376
C 43.401115177761916 32.63473868337474 301.45256351448944
C 46.72288370673814 30.790713535354424 301.56079559649584
C 48.526973728120886 33.677979384503914 303.2688118976744
C 45.59646523244745 33.87041183538844 305.6903107780625
C 45.87081642421234 30.129058380499142 306.34347955498464
C 49.627222680453734 30.602855093274723 306.74529858685474
C 49.32811888172082 33.554429056227335 309.1458815312476
C 47.29942759787756 31.334657556135223 311.465936501445
C 49.29269594698782 28.129420882633177 311.04316477667777
C 52.47673430989723 30.092354645352287 311.78625701485566
C 50.97651767463651 31.524394000764516 314.9801128819421
C 49.867395531007396 28.017928341139697 315.93394802962655
C 53.323156057481356 26.45328224528391 315.655188344087
C 54.95728041285136 29.501784396413772 317.2426995235046
C 52.64998093744968 29.602531383143322 320.26931534627744
C 52.74234443360596 25.804350855193384 320.5608350228466
C 56.54546778752919 25.596786713123223 320.68378774954965
C 56.730970585172855 28.785859179307664 322.7746769956121
C 54.54437923694514 27.344755662423744 325.56443323716286
C 54.46335490820184 23.534245606091424 325.35822708762316
C 58.26395108504034 23.33621988437629 324.93709703371565
C 59.74871910055654 26.438919831543863 326.58169467205704
C 56.84349670794684 27.144328856511265 328.97728362405417
C 57.42884801102646 30.879180811023957 328.5602050619588
C 54.90728566119001 33.40247102002229 329.8596213427301
C 52.72188395247734 35.761914293674536 327.8458179931221
C 52.20398733356651 39.37678356595631 328.862523593375
C 49.031659781796236 41.23586787323913 327.86815853877613
C 50.29101891094898 42.496564319814915 324.5032708352382
C 52.15993761977555 39.33179366456951 323.493654885158
C 48.98376431816115 37.356715119449476 324.2118361710768
C 46.614487903851725 39.58309646214348 322.2264697398912
C 49.05018510156716 39.71688729544322 319.3032484754743
C 48.94900976600919 35.92017689247912 319.0406609003539
C 45.162401632124684 35.845036621629674 319.4014707659682
C 44.753485978489834 38.80243212153435 317.0529496118593
C 46.84132231000568 37.03302172139972 314.43137740629
C 44.50131396514497 34.04228124309788 314.5461611702054
C 41.541407195998744 36.428431350672014 314.57828243392913
C 43.0030175857753 38.23420982109472 311.5568398540813
C 43.5499630421956 34.933293720212156 309.73287893932525
C 39.84917364973214 34.07085685238177 309.9061027565832
C 38.75448892865383 37.64807237601071 309.22303000666255
C 40.73229394500727 37.83061697501735 305.97960251413303
C 39.42514966749981 34.366180411274215 305.0806976873118
C 35.82552334805125 35.57080029521597 305.3732657260448
C 36.82723712436172 38.86103255285363 303.7553566663119
C 38.26731815328451 36.92561215154576 300.8136658650119
C 35.08875468177767 34.873073639529935 300.35866335919917
C 33.22400107990444 38.18935474734942 300.38933263011063
C 35.32201341433707 39.658466319868424 297.5702294271409
C 34.88626066430189 36.43394215568581 295.6055341620397
C 31.105640709943188 36.78155620658711 295.8610818167371
C 31.41236674745007 40.29420567986936 294.4090292791315
C 33.50824333092469 39.01821888193492 291.5013440060434
C 30.867683514831786 36.39185478155171 290.7468370023001
C 28.101930664877774 38.98869238697597 291.0284475161501
C 29.889736270452392 41.06492418152938 288.37837665552377
C 30.341111939546924 37.978882402492886 286.19056881734093
C 26.61179373882287 37.24000168496154 286.45796640778383
C 25.272498069980085 40.77200815500694 285.96586259649274
C 27.934122208280975 42.03687106675939 283.50618776408766
C 29.0623452716437 38.93819716149563 281.5872836661687
C 30.059136691095365 40.94928863711958 278.51359439858487
C 32.34024845343342 43.50771574617403 280.19125159780526
C 33.39734276751835 41.381311353016436 283.1847818530176
C 36.976723612760104 40.951728341825586 281.94458747363916
C 37.54111100851516 44.71580899623233 281.7391887461445
C 35.82990703642973 45.495176382739736 285.0722047177314
C 37.620019424173066 43.02913481121002 287.37476857476787
C 41.29135316464953 43.602517143088605 286.5412780854615
C 44.61236662981921 42.926451619233916 288.238124863928
C 44.94385896783889 46.48517263056987 289.6343820278004
C 41.30432899511714 46.42405208052199 290.75583525577116
C 41.70663793792904 43.08391389285535 292.53437226266936
C 44.886807116598646 44.14004018311036 294.35271689625955
C 43.214788295907944 47.272925700338604 295.7249121333552
C 40.16657232101605 45.329172567592 296.91573146721925
C 42.27147982868445 42.720643407914764 298.71474829446976
C 44.72347367693674 45.228866877796264 300.19764870102273
C 41.79936731978661 47.21813031211492 301.6007719726056
C 40.124787489144204 44.07109243789299 302.8886493674565
C 43.226665399683185 42.94351976480431 304.78148619805006
C 43.70936483828688 46.33018535777231 306.44119475435065
C 40.0909385485476 46.13113284141575 307.5908234345113
C 40.747007875773335 42.558901377431255 308.73029650740597
C 43.98221402410235 43.49552957611368 310.51727142181153
C 42.362922453585206 46.50139594448784 312.1897192287918
C 39.881870085590805 44.2891461509748 314.03411261273203
C 42.637539088303576 42.10906907469527 315.482890671308
C 44.6040989332448 45.15239882901193 316.62015519793584
C 41.510849851510514 46.847932890203545 318.13883551028414
C 41.48306868436159 44.39195409351068 321.0703661011963
C 45.26436646017238 44.56854487288259 321.2757008844941
C 45.03033960365726 48.344466119916504 321.20660390748463
C 41.990526974231024 49.379239122572315 323.2670093891596
C 39.14999907879924 46.933199874690246 323.9705614437166
C 40.201407718493364 44.9545133928681 327.0538347047987
C 39.37703630694671 43.588782555209164 330.46139331693126
C 42.380690193895795 45.36790326691881 331.9663884202503
C 42.07278038624136 48.69603618684979 330.1626908283411
C 38.26390521285383 48.93448024248629 330.3219890521087
C 37.61427966873204 47.01431231996731 333.57387714416416
C 34.86817305040721 45.31480484747369 331.56332160726686
C 33.37449869476195 41.84255177529436 331.86126569830367
C 35.96242944903893 39.278752762847716 330.8384997266218
C 35.4490175704888 36.35134053494726 328.4747954456588
C 35.228825458552045 32.92072351871616 330.0931632855779
C 37.3057301527011 31.47205259360862 327.2235651897087
C 40.025926315417124 33.97269302155018 326.34772598332006
C 42.04167342008458 36.01445651186 328.86521552327014
C 42.175147812490856 39.80747131368191 328.5006826736153
C 39.28031347422571 39.75459549985671 325.9859092316824
C 36.30455020561833 42.095444524219076 326.2954951239832
C 32.882305465922094 40.48356646047812 326.01039492663824
C 31.39411953197996 43.38721680224601 324.0600874062676
C 34.24929404812274 43.230374287304194 321.5584721936522
C 33.275293540082586 39.64709138859629 320.71818938044964
C 29.675594411925236 40.671190390770725 320.0482648721379
C 31.012627859600677 43.16113935327866 317.50091071930683
C 33.414815591415916 40.5692199489106 316.0804666369285
C 30.873717246421815 37.729082794048146 316.03488926377116
C 28.158995353366517 39.91268891290213 314.5358935933474
C 30.436700923436753 41.186948891299174 311.7678681224996
C 31.542478273473858 37.74068986977166 310.59626804290775
C 28.085139668741142 36.22503887947638 311.13582461969224
C 26.46445040217573 38.831269063355634 308.8765209332452
C 29.189822479112074 38.412564407931036 306.2629517125793
C 28.90712734954523 34.61593733108196 306.34583707272503
C 25.10615709147324 34.73975991861345 306.1600351302172
C 25.443607748578877 36.8367018765743 303.008584531537
C 28.217503799952553 34.65756065602815 301.5572388997974
C 26.09094684356207 31.542954494451823 302.0558128293232
C 23.16836621528638 33.16972140200334 300.2465212382976
C 25.43670693033079 34.567302138563655 297.5329083160313
C 27.272114520077665 31.305277946764733 296.84861024152093
C 23.929062110474774 29.527178862092914 296.4146673802222
C 22.729850011592532 32.20391699425724 293.98499056968325
C 26.07265046244294 32.08808683507941 292.14613658450236
C 25.881932324871613 28.306971995288027 291.76186699892816
C 22.21264180838161 28.488849075761955 290.7352336084402
C 22.960316355839872 31.127306591135035 288.09981010585443
C 25.872050059397758 28.9943191528882 286.8893952744018
C 23.451962703006675 26.15738679731186 286.0960186067381
C 20.8606765517924 28.387347681964215 284.4012122117814
C 22.81148379855432 28.54303586436395 281.1295039970023
C 24.429672113306285 25.108572586284325 281.2240907681165
C 25.181728031997338 22.259275607151054 283.5349445075276
C 28.601057638494513 20.73581913904417 282.95491833096344
C 27.819478662139797 17.00986480518289 283.18493509456357
C 28.94585299856139 14.45568498261133 280.61620342729265
C 27.50528766105257 10.951691905812842 280.337214273638
C 29.43038725932637 8.070372210868667 278.7854995264661
C 27.695667190249633 4.754234894118791 278.059361751809
C 29.8727450075327 2.0015308820961857 276.61355860228986
C 29.34380509121391 -1.55848702633254 275.47617014499866
C 32.47608154925043 -3.7140189765009657 275.52745114263575
C 33.24845997797622 -7.42429937066713 275.90847493149016
C 37.05384166152382 -7.528068689250183 275.6952805566094
C 37.515871073635694 -4.031367069906286 277.1393274105536
C 38.749498215852874 -2.090473264605921 274.1023617729926
C 35.74624008525617 0.23067068650337624 274.1329287614862
C 35.90933044194908 0.40665108452180015 277.9421644955068
C 39.53354187464397 1.5439480142259672 277.7407064331676
C 38.52688129103671 4.018940297658019 275.02762077525125
C 35.742906521058146 5.453186682707188 277.1881135431621
C 37.969724245478055 5.660916566420761 280.2753214140215
C 40.546981126959814 7.571556881042818 278.22154777162035
C 37.90876548348761 10.028481794376649 276.98742046615894
C 36.619587309885134 10.242222806297418 280.5634718891507
C 39.845039851958745 11.672419893256498 281.99975899393326
C 40.347284508644854 14.248875047902905 279.22808390279
C 36.860989948224166 15.634677909400791 279.87986299398244
C 37.38129200774758 15.406953207052974 283.64866014242745
C 40.439167212342994 17.65189464784952 283.3392661789163
C 38.59036532008188 20.053642320977247 281.02611634577494
C 35.908650003392324 20.867238395668164 283.60852122933017
C 33.133536064431 18.322754219599986 283.0295294299856
C 31.458641282477203 16.349177488507973 285.8047882369251
C 31.960952620917638 13.020680331390755 284.0295870876901
C 29.658752030822477 10.045722064092695 284.69028492677785
C 30.819225581776145 6.80710356378611 283.0445446318408
C 28.48836273109856 3.797186203866691 283.01009043814275
C 28.44037468693516 0.3616971293115196 281.4103866685721
C 25.502655123719432 -0.15367954700057931 279.0471274740244
C 24.510129334306175 -3.3399339676197526 280.8973382632523
C 23.689291520634633 -1.3316706688468232 284.04900169383893
C 21.475454173233185 1.4806582908705725 282.69270093653023
C 17.788483059651252 1.921272261413456 281.9259984305753
C 16.992346200196884 3.7754861171495393 278.71095789605573
C 14.050761382314056 5.792982328182693 280.0428418260956
C 15.200811126257863 9.342433083667952 280.73048780033787
C 18.835918963566197 8.22787479028097 280.74423640793253
C 20.253739954861363 11.394670446227988 279.1720280223503
C 18.362500402889168 13.779463635478136 281.46370737082543
C 20.547317534985638 16.09729192446978 283.5182997168564
C 23.48276422422902 15.756128239765154 281.11024793536785
C 24.257198045436397 18.21512420898429 278.3237056617693
C 26.932052699364675 15.99459220934089 276.7724506964052
C 26.364327586811335 12.292010508092945 276.0899520388892
C 28.94021485963408 9.969676684736264 274.5258817726427
C 27.76650810604004 6.542200665598568 273.4017343781426
C 30.43735726245493 3.937375044345407 272.68090815115363
C 29.870207786316083 0.48470310429414876 271.2468855112489
C 31.923292745508558 -2.21262233959044 269.5372491685386
C 30.779351596019904 -4.074703940086881 266.42446948736085
C 30.215577202032875 -7.845278237577926 266.4118780792998
C 28.951283264422866 -8.695417037045454 262.94195333634684
C 29.799446758463464 -12.396671185037686 262.6475494859994
C 28.319676998242386 -12.486356094354166 259.151492022792
C 25.993790967261692 -9.475507770867761 259.5372433562538
C 26.286222660512983 -6.25169152099255 261.5592516285687
C 25.57239771011004 -6.380303802980662 265.28424485403957
C 26.055894081899464 -4.112294693624291 268.2762236567954
C 27.833742971775628 -5.319521975820335 271.38641749945964
C 25.210950211621334 -7.288452061769986 273.2560240378082
C 25.06529392524094 -5.1153861967880605 276.37302315741516
C 24.22548868761169 -2.0887030810250207 274.20979188706247
C 21.294005960041755 -3.5435028428959336 272.25373604843537
C 18.627120838533347 -2.95213596274191 274.9671664831554
C 19.624525185041662 0.7179673866967626 275.0420144780033
C 19.75334879325425 0.9216887139683312 271.2550779251609
C 16.281002380497682 -0.5894316483501307 270.9077278014417
C 14.781311895066608 1.9774953533786708 273.30927165866694
C 17.003525806516375 4.914880572618207 272.3867318784309
C 14.025608575596863 7.203730327293283 271.71358474365496
C 13.237156514304296 7.110708648606697 275.45847635846854
C 16.60483442767665 8.551996521297239 276.51335610368886
C 15.873879781929908 12.220480939466903 275.80810075117944
C 18.29268124818266 12.574757331337363 272.8778432974162
C 16.327937873050708 15.179287242672748 270.9029719535947
C 18.06405111048231 18.53829509973785 271.0960059142923
C 20.87791614227849 17.141165441137876 273.2267913223747
C 24.576821567227135 17.16367810900051 272.3353079737801
C 25.88995156534238 13.658896305966243 271.5997756628044
C 28.790827796230968 11.910292252473344 269.89907337491843
C 29.696193243066435 8.289677241198117 269.27521107397035
C 32.81640650116509 6.153887839946158 269.4836534979191
C 33.548807446247956 2.4741935099503625 269.05894048032076
C 36.200105464144634 -0.1905879222723464 268.55195976595735
C 36.26191447238185 -2.3454507818745465 265.43876817650903
C 38.5798521008848 -3.9010546695333383 262.87635742122404
C 38.884309118367014 -2.9981358931207436 259.20687457479454
C 39.125663427045964 -6.600755085133566 257.9614328573548
C 35.356242238427626 -6.87045258995381 258.46252434491663
C 33.005453772396336 -5.615119582124886 255.78733270322724
C 31.42726732090737 -2.8925045771025335 257.94353964389927
C 34.215694242819886 -1.280243222157707 259.9532252694586
C 32.65391100119856 0.0037528618384626705 263.184143022936
C 29.17192492765728 -0.48770887710956784 261.76170004742687
C 27.891753729052343 -0.0860665334167888 265.32153322213765
C 28.775654025215157 3.6123260204001824 265.55027833668873
C 27.183973696195867 4.117849095567793 262.1265219326471
C 23.93902108905823 2.566737780636873 263.35934810309664
C 23.973698641399043 4.571969943499342 266.59600435875944
C 24.708879773025686 7.876664503641379 264.8495044911505
C 21.97850177856474 7.3265095575000885 262.2457130738708
C 19.422689551456877 6.671698237610615 264.98110332947215
C 20.672149321968845 9.683644285748125 266.93975258551086
C 20.1837023057803 11.796099994479688 263.81035500366664
C 16.68785841426683 10.383475542843128 263.33548662479365
C 15.918236337454761 11.334970103681563 266.9527757950986
C 16.91385104801425 14.974235870705074 266.49830445768634
C 20.020767044557047 14.81193279552377 268.65988067805677
C 22.645089995635573 17.50736203031062 268.08410875676816
C 25.65192205320051 15.454426113342791 266.97930195094784
C 28.655369406575332 17.586821220893835 267.8859366908715
C 31.144606042730413 15.867119658725832 265.5667128890497
C 31.851444273299716 12.71017028486389 263.60667305142124
C 32.236205150242675 9.431845519561742 265.4176603006651
C 35.49840630087524 7.984528242232416 266.68446925767086
C 36.25436124172519 4.69066451015033 264.9125526522017
C 39.20246783410771 2.7982642322654625 266.4017301743814
C 40.88461809775678 0.135118221399345 264.27240291329275
C 42.65910336927611 -2.680898757371563 266.0647304168943
C 44.07925757897928 -2.0785947132459235 269.51982310675254
C 42.92723468237703 1.2369370201647731 271.04121075658077
C 46.09351302479548 1.5396604779218577 273.12617507373955
C 48.073611284358726 1.7997427647528739 269.863969794771
C 45.8047013950995 4.6684214093008665 268.7015047889698
C 45.68262622443855 6.757230411964705 271.889096935765
C 46.60928598645112 10.035740014910408 270.1658947913932
C 43.3649477335852 9.88521291884329 268.17827738634423
C 41.19302158342484 9.052376781455152 271.19881229602464
C 42.6176680386407 12.016590903902369 273.1064099336435
C 42.40975914940059 14.196298089978104 270.00061372307243
C 38.76419502187502 13.25164517815608 269.4826836764776
C 37.94273976518988 13.907300904323698 273.1426663621022
C 39.540812331855115 17.335922954009163 272.74789498221986
C 37.24554056922228 18.177473543996115 269.8361185367273
C 34.154141307304705 16.88363718382414 271.6558488351575
C 35.20585206328765 18.95380619790055 274.6815954036539
C 34.094463534183866 22.154989056268764 272.9577198953552
C 30.445047216166348 21.07835970168443 272.8836390318873
C 29.828201153925704 23.35039619929834 275.89285342335813
C 31.671136656156733 26.707749602791488 275.794852223753
C 34.72340837043957 27.1325400278033 278.02021201099757
C 33.171369942426765 30.080761515794062 279.8551349696356
C 30.13722291555986 28.05008597714631 280.93175597298375
C 32.24289805903631 25.170148835627682 282.24232853731013
C 34.71943637692378 27.547743638490765 283.88053023709557
C 31.92950701301974 29.47953759958567 285.59673174858716
C 30.56618373889339 26.18368179591267 286.95098165456113
C 33.8375451765034 24.890388055402504 288.38349820004134
C 34.521526083642975 28.324444408944792 289.87893403505234
C 31.075814850169465 28.216862917821075 291.47563590635093
C 31.57251947166979 24.595688198978753 292.56780785067144
C 35.0161732354836 25.36168559428346 294.0063475496697
C 33.77160734823752 28.317626145405384 296.0570958904614
C 30.94290373851869 26.37832723840729 297.69940254965303
C 33.43450754726411 23.703307959901743 298.7404225055514
C 35.75739605396384 26.279718461591415 300.32132584096416
C 32.7336630366128 27.701344799421353 302.13777903399375
C 31.364975065945995 24.388111916085993 303.434848882177
C 34.808918786721634 23.375557256620986 304.6956023665731
C 35.137873004376 26.74361921506982 306.4287553617376
C 31.765963116212543 26.327310492624687 308.1525864625244
C 32.599906391515226 22.775605760695854 309.2381914836546
C 35.92342998042059 23.687428139512384 310.84368420531575
C 35.46898194146526 27.208848343419234 312.19990586142046
C 31.716765543879212 26.969616783442092 312.76276167608296
C 31.85950712381334 24.979717497381625 316.0103140078527
C 34.38614803057542 27.38266901939032 317.54404048072365
C 32.108369080281754 30.291298118047475 316.62692051739253
C 29.218571311778206 28.519196378671904 318.3513018602297
C 31.408258047145093 28.236932951084828 321.4526175614354
C 32.07430264970842 31.980542730218193 321.3427194281686
C 28.329896439681026 32.56957433537622 321.0045092253478
C 27.790398058602964 30.504316408930492 324.15475165444803
C 30.36136150551173 32.72207195482146 325.8837860804289
C 28.91244724500989 36.15994081432229 325.12721210403015
C 25.178052779920474 35.71457385643633 325.7124615771528
C 25.196329132564223 33.313707478273535 328.6540224153518
C 27.81954360443939 31.48235059212329 330.6811798310299
C 29.883403109428922 28.484431165146393 329.5930811571093
C 29.44356909626617 24.85120222867902 330.59160311911836
C 32.04695797416005 22.415791687014018 331.8534036299889
C 31.311537192070716 20.40607872717647 328.70375037597523
C 31.712667346999233 23.291262352998032 326.2502046991421
C 35.118319073358 24.137545495404613 327.7499500471824
C 36.192685885988894 20.54639481125522 326.96780345000934
C 35.0054743728408 20.24345214356091 323.3589867045614
C 36.6667207680866 23.623886347992638 322.7754080658431
C 40.07388977502384 21.923479353600715 322.9144124913365
C 39.03425884972384 19.78695900575282 319.9305584360424
C 36.96974741026847 22.41739103598641 318.112060281077
C 39.99676632207396 24.723299414489006 318.08308542804866
C 41.961467185537735 21.931364611075225 316.3915495375208
C 39.26736703363087 21.856999871525456 313.7095998611357
C 40.219765474335496 25.475937390237288 313.0235191558519
C 43.75572241464257 24.35341081966418 312.14383507731884
C 42.86393994023305 21.580960852419008 309.70300713983846
C 40.8179664385428 24.090619254320206 307.71421339511363
C 44.1580860352367 25.695345508348264 306.8527741253422
C 45.53278578847649 22.250789782314605 305.9230493024743
C 42.814486333756754 21.044094980770705 303.55233084207106
C 42.49062222371389 24.355140911256502 301.69404820753107
C 45.87769938116466 23.84569882556983 299.9739817434297
C 44.608395285262795 20.326241642707537 299.25447005632685
C 41.417320345058606 21.754445801414747 297.73561829676163
C 43.379145466050566 24.15795875025228 295.53715979433167
C 45.44999603373561 21.26730434081679 294.18809108141943
C 42.48610402287831 19.072880778979314 293.24820176876403
C 40.3950781986851 21.70691469125251 291.44178391244515
C 42.812071616832796 24.31581026974078 290.04898128196345
C 44.16033607682524 22.512284267463887 286.98979918156584
C 46.419365602035384 25.479276981333175 286.1890970191735
C 48.079110330708055 25.370270299837713 289.61448980559686
C 49.08207571617368 21.739863539022306 289.0695588533147
C 50.888903242103396 22.682279082734595 285.8580933733479
C 52.61051932734655 25.67079851991455 287.4733960914226
C 53.72725503263247 23.238047026062652 290.1854079819697
C 55.137938541745015 20.773741377879183 287.6463306735425
C 56.838962856051104 23.739500801420384 285.9447556107105
C 59.19735426639456 23.750461770509308 288.9377616098248
C 59.335581955087285 19.934768129371992 288.7022895861687
439
Mode 7 - Frame 19
C 49.25394561096259 36.198900776883946 337.39515272900945
C 50.68656146194009 34.02404150249935 338.74269969541916
C 50.523779224640016 30.772969477789854 336.8135940391056
C 50.28463857532953 33.1290207214889 333.8344070508768
C 47.53587414856623 34.03518400453396 331.38327453369436
C 49.048708270116975 32.28270356749233 328.37021863999894
C 47.925782547133444 31.442393404728836 324.8496974913085
C 47.01179412991622 27.763817927087732 324.3942772343218
C 46.72826103484073 27.280190939634437 328.17954004386183
C 43.377767722764965 25.490506192743556 328.1681755104871
C 41.6041282930003 23.454443544201517 330.8601541323338
C 43.17937171183078 20.202029177597108 329.55855072487645
C 41.01187527474157 17.551850450145032 331.1873075263411
C 43.29036959359772 14.503988794951882 330.90081687085654
C 41.917354283812195 10.988495648492355 330.46837575954123
C 45.41612729105363 9.557798197378975 329.89944299621993
C 48.97765644441937 10.738042791030558 330.53448606147396
C 51.78277802268578 11.149435347403408 329.5148996771576
C 51.3404915908836 9.350794896301684 326.18979607284024
C 48.59150553163392 11.842758743883888 325.3952154286674
C 50.827490173969004 14.726572091575424 326.46398858854815
C 53.754546623095486 13.308099124129262 324.4845798023711
C 51.89949582564707 11.891323739086861 321.4752271402422
C 49.402580136164666 14.747522643455664 321.09610511012926
C 52.27583770713808 17.221832875504546 321.3739516206439
C 54.336313403526454 15.705254326554947 318.5512768648448
C 51.1650535285372 15.042854441392839 316.5519415432608
C 49.83158867840775 18.593009097447176 316.87148542638437
C 53.24067317663339 20.158677045470146 316.23067161936206
C 53.769394929074046 18.025295540448333 313.1164290558414
C 50.29369784812202 18.904992193158364 311.8401944156112
C 51.022749974731795 22.59768876179155 312.341986231876
C 54.40817720789216 22.6272592810372 310.61197755926645
C 52.93669315558336 20.6452741000411 307.71080451943465
C 50.338553769658326 23.390893078841312 307.23758629429847
C 52.897915906601234 26.20690749669452 307.3048315126754
C 54.9510542151563 24.479490798901036 304.6098443653331
C 52.03807181730247 23.454796417726826 302.3927380034188
C 50.52771323493079 26.949397910491125 302.53529688893013
C 54.018346662045715 28.33525806600318 301.9588397054043
C 54.09418155050426 26.04488252078176 298.91699202135595
C 50.887869908069476 27.60621596822335 297.5658834428486
C 52.32198393542305 31.085896089338046 298.13565219025105
C 55.408780629633185 30.031044118990003 296.1636552307823
C 53.89495716624734 28.732567077919985 292.915368517435
C 51.70082840175988 31.837995138705516 292.6322885000621
C 54.42360529986971 34.45111888525746 293.12126752676005
C 56.789110451200536 32.25177077395224 291.09325448466814
C 54.72545832254312 32.10930443600857 287.8900303970807
C 53.48638498176074 35.17059371049673 286.01109966447405
C 50.60320356096724 33.34198963751819 284.31806475553185
C 48.903120883681595 33.25786908510516 287.7512387927543
C 49.885607140811125 36.48783156422902 289.53508921425555
C 48.17338341491832 38.354557128615255 286.67738664929533
C 44.90814658500482 36.42845968186566 287.1598133128184
C 42.35610320490411 38.00749058864675 289.544910264522
C 41.24804005009748 34.51744234958118 290.61602752781465
C 44.676372759334676 33.7596368078725 292.11432556660156
C 44.64530915963365 36.988254003765746 294.09490020368213
C 41.829180306626725 35.121796772436475 295.87788476280105
C 43.698040517503124 31.84769635220437 296.4730936115682
C 46.91239277379321 33.61423185203736 297.45402616633584
C 44.92892486088931 35.74905761494023 299.89406410802644
C 43.39929542634728 32.62885471701808 301.4564128478749
C 46.721002774408674 30.784822922036664 301.56497058578015
C 48.525645216643596 33.67321629267559 303.27061237414296
C 45.595795259181614 33.86734892712215 305.6927717423351
C 45.87023927566861 30.126430676322496 306.34836395071227
C 49.626752910916224 30.600437971034733 306.7488135827987
C 49.32841461725673 33.553749521098396 309.14743609931605
C 47.300333558245285 31.33562429757328 311.46962010682256
C 49.29340852215319 28.130060754578167 311.0484945992376
C 52.477721338390225 30.093505636876255 311.7892323957733
C 50.97850469747915 31.527934215892234 314.98252153959976
C 49.8696145831338 28.022138416624504 315.93922056301625
C 53.325311813523605 26.457321548916237 315.6605243958311
C 54.9599976646819 29.507013679337383 317.2452632384428
C 52.65367628786284 29.610072612682913 320.2725704584699
C 52.746135860957885 25.812108682252966 320.56687062749864
C 56.54929181898744 25.604659743314702 320.6887536052593
C 56.73545613981865 28.795337244247662 322.77723475612436
C 54.549765744247395 27.356320874398804 325.5687767634792
C 54.46873498508897 23.54567600329565 325.3654235742578
C 58.26922442601709 23.34737916949111 324.9432018913756
C 59.75445975189011 26.4513213761116 326.5850500451713
C 56.84997151839201 27.15842439285505 328.98105897862104
C 57.43515136212268 30.892972903454833 328.56105220308046
C 54.91396900262271 33.417132759086314 329.85952125850446
C 52.72793248989096 35.77510731498778 327.84471263227636
C 52.21032750948995 39.3907349746488 328.85896159726644
C 49.0376490678741 41.24904862500494 327.8642357403184
C 50.29604586573553 42.50728601687758 324.4980561507855
C 52.164678774715064 39.341783040066275 323.4901275912392
C 48.98872398063865 37.36721236139727 324.21073561490977
C 46.61884587931152 39.59210861715259 322.22447939053836
C 49.05367010181833 39.72372965692692 319.3004067024715
C 48.95244842270658 35.92683148487391 319.0405712717419
C 45.16594386432386 35.85191845203931 319.4026524497378
C 44.756257564092316 38.80756829345408 317.0521433531147
C 46.84325769534033 37.03619922457511 314.43121284637175
C 44.50324714482034 34.04552734135983 314.5488469045956
C 41.54336501784673 36.43171712439121 314.58020727947866
C 43.00407948790511 38.2353225336133 311.5570618388472
C 43.550481900735285 34.93310704093438 309.73522576279265
C 39.84974817468546 34.070819016534784 309.9100946189301
C 38.75488247258719 37.64756287898086 309.22488813227955
C 40.73184301165284 37.82787260141597 305.9808190207202
C 39.42439628616039 34.362792020998896 305.08458248438467
C 35.82486873552365 35.56757574863057 305.3773006634193
C 36.826242545557925 38.8568121411236 303.7570368189888
C 38.26555205103926 36.91943042762636 300.81622068355637
C 35.08683964641021 34.866485266125565 300.3633320233678
C 33.22215117088655 38.182840674534745 300.3925923106534
C 35.31963813849009 39.650395856217784 297.57214026228104
C 34.88315779947767 36.42467589439703 295.60937573717666
C 31.102638296309934 36.77245224723694 295.86586108487927
C 31.409027608340267 40.28474475808499 294.4124730934104
C 33.50407863068288 39.00743988216947 291.5046066933987
C 30.863106534149974 36.380979545142154 290.7520801896693
C 28.097419009287922 38.978038540981885 291.0338520705675
C 29.88438029331385 41.05380297497731 288.3827052265494
C 30.33479800284686 37.96722152619169 286.19574111980677
C 26.605660010870974 37.22837233662629 286.4648296797266
C 25.266021879270543 40.76011620329896 285.9721698027245
C 27.926753731773758 42.02467856728482 283.51125934903706
C 29.053978499820932 38.92556222627379 281.5926449128252
C 30.049393221154137 40.93588493966035 278.5179805220396
C 32.33159177775827 43.494424939400886 280.19396123343034
C 33.38976827430055 41.36897091364737 283.1876316422501
C 36.9687211550924 40.93817655076007 281.9458000048209
C 37.53347525826569 44.70201420972177 281.73897432080423
C 35.82406756805709 45.48227164191932 285.0727874543761
C 37.61500260187653 43.01595476898034 287.3747074059564
C 41.28616024097106 43.588116588868104 286.5392370792569
C 44.607705892152836 42.91256237316056 288.2352504187257
C 44.94038561572638 46.472002584507294 289.6294610465352
C 41.30124419104938 46.41217173892032 290.7520913227462
C 41.703370478122004 43.07278996686791 292.5323561487716
C 44.88411299998278 44.12974257782045 294.3492059927117
C 43.21261783171564 47.26365508967952 295.7198669526478
C 40.16434477174567 45.32076014775807 296.91248872846563
C 42.26949214593585 42.71314837801029 298.71256725735765
C 44.72201299518428 45.22222385447584 300.1933268320745
C 41.79814283989732 47.21261417201157 301.59568974552093
C 40.123674065685485 44.06635922760084 302.88591355561385
C 43.22604833331862 42.93995675675286 304.7787072583317
C 43.70919695647585 46.3278555288953 306.43595996069274
C 40.090922306099564 46.12958207223619 307.5865477499818
C 40.74727427093953 42.55808236967653 308.72826037036987
C 43.98306353403952 43.49593386371914 310.5136427733562
C 42.36422352448658 46.50308647891664 312.1843587473124
C 39.88368594191073 44.292092229072786 314.0309706158802
C 42.63979608456039 42.1130520344647 315.48048295282223
C 44.606768217566604 45.15726188777573 316.6149099489838
C 41.51398192715514 46.85399436251851 318.13324145007914
C 41.48705154096057 44.40013567809006 321.0664981642869
C 45.26842802293605 44.57688260842137 321.2705998678623
C 45.0343940678816 48.352783039983734 321.1988341235905
C 41.99515959001228 49.38908192513677 323.2593467795433
C 39.154756478187984 46.943560930495956 323.96542357100583
C 40.20706606734615 44.96707182370278 327.04982631265125
C 39.383653740688366 43.60379095071966 330.4585898274799
C 42.38774477227405 45.38400082213506 331.96146912859587
C 42.07933017668745 48.710847307132134 330.1554726457882
C 38.27048799665788 48.94940873266502 330.3156426346005
C 37.621754366756335 47.03157524739576 333.56908702883453
C 34.87509094078359 45.33061207560958 331.56049916398365
C 33.38150265733521 41.85855642653158 331.86133592595036
C 35.96915079554024 39.29401759732813 330.8396890650829
C 35.45510142494576 36.3649105310732 328.4781774545957
C 35.23538716221801 32.93545199659195 330.09902134100594
C 37.3114737252656 31.484753542474465 327.2297937873145
C 40.031457422941266 33.9847703036832 326.35161825940963
C 42.0479306244391 36.028321475741876 328.86712268342967
C 42.181266091666316 39.821075876392015 328.499805859491
C 39.28568259955388 39.766382692197254 325.98588524039127
C 36.30998190224779 42.107456125154506 326.29456873796056
C 32.887672474547564 40.495345977319076 326.01155656504966
C 31.39890876876965 43.397582332233114 324.05958188193745
C 34.25333647140463 43.23893124826592 321.5572754333407
C 33.27907151558958 39.6550449486263 320.71982531721596
C 29.679187598426882 40.67864149142522 320.0501850758691
C 31.015436946295164 43.16672676958413 317.5006228077219
C 33.41714567117618 40.57377141375696 316.0813829158442
C 30.87602133227317 37.733598007013725 316.0385603835942
C 28.1608443196498 39.91604276379404 314.5387729170567
C 30.437679127437757 41.18825695004508 311.76915483296193
C 31.543133314592417 37.74113652515377 310.5997749656743
C 28.08596952555307 36.22584209632568 311.1413288476641
C 26.464569449548065 38.830282926458885 308.8806233253264
C 29.189246930960042 38.40980614013945 306.26663933846487
C 28.906632382762307 34.61327763191103 306.3521375326806
C 25.105669985883196 34.73678901344023 306.1671808799194
C 25.44218250377046 36.83160112216273 303.01428961446294
C 28.21578676662659 34.65162963464165 301.56364556807006
C 26.0893469126401 31.537391883367803 302.0644857028578
C 23.166348502983684 33.16277561397491 300.2548527268967
C 25.433986333132523 34.558923966085835 297.54002054703307
C 27.269237340856083 31.296629066575008 296.8569652548729
C 23.926171078687986 29.518239478994445 296.424359063569
C 22.726374292223248 32.193586828491256 293.99371042239324
C 26.068857686047867 32.077272933548336 292.1543664039132
C 25.87794973502659 28.295863426557528 291.7713471306993
C 22.20884674460136 28.477179390756092 290.74481064005204
C 22.95590664357544 31.11522920662949 288.10901088652554
C 25.867834274883556 28.98224508862351 286.89875072301567
C 23.447988142512642 26.145330612381077 286.10474587002
C 20.856626357671388 28.37554547181229 284.41025496098166
C 22.807911284137717 28.533530058050182 281.13862386897347
C 24.426678000005623 25.099737269802176 281.2315155371593
C 25.17769144478911 22.248775914118657 283.54074473696505
C 28.59684385723785 20.725463108825014 282.9601830145957
C 27.814318909141353 16.99925653164734 283.185446566167
C 28.941585128209187 14.447408000981037 280.61467131491275
C 27.500606050875643 10.943945381064184 280.33092738521896
C 29.425996287810126 8.06386275389776 278.7771735262742
C 27.69108589476049 4.7487463964501915 278.04624169304174
C 29.86844859369449 1.9971778720159064 276.5986403793096
C 29.339524558303356 -1.561523202387021 275.4569202316264
C 32.47134546094313 -3.717724381148641 275.5077468737444
C 33.24276665951517 -7.4286075142623496 275.8850765614116
C 37.048249227174466 -7.532844487620372 275.67420963206445
C 37.510022099811344 -4.037807615268121 277.1224978860268
C 38.74592951212281 -2.093770116743399 274.08844877934536
C 35.743131781112496 0.2279405095724821 274.11969425753426
C 35.903867198861256 0.3996867106342059 277.9292566127303
C 39.52839882956331 1.5365334958796057 277.73137786723663
C 38.52394246623264 4.014695501634988 275.0203840767214
C 35.73891711091705 5.447156815125924 277.1807427763471
C 37.96383646299048 5.651114914557888 280.26959147123756
C 40.54274712267216 7.563510353932519 278.21957804710644
C 37.905796049185724 10.022265615298545 276.986474347066
C 36.61445627395177 10.23250209776605 280.56201073486227
C 39.83923548852251 11.660636769523474 282.0018098007221
C 40.34365931921616 14.239855362614643 279.23312803579705
C 36.85728690250177 15.625606117746422 279.88432011082483
C 37.37555429248868 15.394253791380258 283.6535922698529
C 40.433660825467825 17.638915440696163 283.34805887886546
C 38.586497176713344 20.04297524186416 281.03539806978915
C 35.90379985169186 20.85514298618056 283.61738134254506
C 33.128655797125674 18.31158808981668 283.034691321842
C 31.45193863126999 16.33574441297096 285.80711108652434
C 31.954332260661133 13.008437417984656 284.02842069542305
C 29.65128571141816 10.03296155421676 284.6842810264301
C 30.81188442827852 6.79576545689188 283.03570192662204
C 28.480529201031356 3.786134253353853 282.9963700405266
C 28.43280863044992 0.35236610424586223 281.39277986626
C 25.496484757925362 -0.1599383707816696 279.0270733416588
C 24.50223411431751 -3.3481102326546046 280.87311082943535
C 23.679853287722786 -1.3432134158726816 284.0265354946359
C 21.46738049906296 1.4710526867878948 282.67200543756354
C 17.78094564753715 1.913150505494735 281.9035313688476
C 16.98715143571961 3.7711212750898464 278.69006600146577
C 14.045147729086356 5.787691387422333 280.0224478796351
C 15.195474934518737 9.336204029692283 280.7147579229673
C 18.83034696118969 8.220969544843992 280.7294973381293
C 20.249706519026976 11.389297070858767 279.1617272028074
C 18.357610709757157 13.771921089292986 281.45490767971614
C 20.54158656692019 16.087325171310948 283.5133569796981
C 23.478472889622942 15.748232730474527 281.1068773926216
C 24.254871570080198 18.209870769234193 278.3233635507103
C 26.930216434066622 15.990519722371907 276.77124825408123
C 26.36229966448147 12.288841523607337 276.0843887787668
C 28.938685768976292 9.967741033698347 274.5192426862312
C 27.76505652436413 6.541725077237796 273.3905630039944
C 30.435865810784144 3.937209860133353 272.6684611400918
C 29.868941139577938 0.4862105117112494 271.23020350026627
C 31.922577181617406 -2.2096150704250803 269.5188130826333
C 30.78023746807115 -4.0680178501313495 266.4031841862697
C 30.215729764318368 -7.838479628705261 266.38594313169676
C 28.953472642976163 -8.684426098856402 262.91418808574554
C 29.801150723711665 -12.385483108099178 262.6159771033997
C 28.323556326915025 -12.470855718807996 259.1188471979191
C 25.99796473297695 -9.46004748547071 259.5066473134038
C 26.28971758810032 -6.238658624670096 261.5326224745986
C 25.573560084230557 -6.371397443444655 265.25708528248396
C 26.055601772823305 -4.106822001771871 268.25196593094546
C 27.83129621431057 -5.317809746621475 271.36194669534837
C 25.20697234948561 -7.288307234302446 273.22774884757104
C 25.059821030294437 -5.118660035726469 276.3471265559155
C 24.221917465438917 -2.089417541812687 274.1867416061114
C 21.291364400430908 -3.5415212431139635 272.2272349331723
C 18.622923761899713 -2.9527005265152058 274.9397218836246
C 19.620963609632092 0.7171658260815748 275.0192873443344
C 19.75211941655248 0.9250425122793589 271.23263187492483
C 16.27968144223019 -0.585052409451805 270.88148881987996
C 14.779015511703854 1.9794764764116812 273.28502662035936
C 17.002343216808228 4.917492141280062 272.3671018117982
C 14.025240803352583 7.207623751553646 271.69470872779476
C 13.234554748216473 7.110631640502234 275.4390430679551
C 16.601883216254187 8.55014540737795 276.49759141711695
C 15.871997812220666 12.219550804285216 275.79596896039624
C 18.292596997776407 12.576543385186701 272.8674936525807
C 16.329507333017908 15.183592180675408 270.89424219528144
C 18.06617912761666 18.542073487482774 271.09204277512407
C 20.87842260453726 17.14200210994201 273.2230357771602
C 24.57783165900979 17.164650282838178 272.3338034944475
C 25.89073170388793 13.660454779192154 271.59522303807506
C 28.792368161409442 11.91327694716875 269.8943351260249
C 29.69756588728148 8.293292320594205 269.2670731453848
C 32.81730688538704 6.156765642953879 269.47510388096674
C 33.54928517867922 2.4774164191576387 269.04676632778705
C 36.20039765323412 -0.18730724265239088 268.53846914341244
C 36.26374206072955 -2.3386977787876235 265.42284809285053
C 38.582984771069405 -3.8918181471726085 262.8600644559084
C 38.88994140587599 -2.984691823361638 259.19177555411767
C 39.13138936311948 -6.585888795220047 257.942252382403
C 35.36159253517317 -6.855506346482704 258.4407249164316
C 33.01271017487526 -5.596649244781921 255.7654826212579
C 31.433681501262875 -2.8762505070711493 257.9238587670861
C 34.22116401042522 -1.2668275209112647 259.93716168814126
C 32.65758786651689 0.013731452622864293 263.16858632973896
C 29.176398414405654 -0.47547350872211847 261.74338313489545
C 27.894067457755206 -0.0776260873196247 265.3029079019382
C 28.778470027834608 3.620341596781852 265.53634328970054
C 27.188988700113086 4.129967630169581 262.11212264437154
C 23.942991365576322 2.5780339527213534 263.34120248042296
C 23.97599780969184 4.579627090458534 266.5801467012566
C 24.712812697809596 7.886091113176012 264.8377437277824
C 21.983920675270515 7.3393312880882755 262.2316286202927
C 19.426307884620456 6.68192670396758 264.964743204278
C 20.67509623820335 9.69147967046259 266.92752876984366
C 20.18890989104184 11.807491904570186 263.8001406096977
C 16.693107261107734 10.396023969405487 263.32160663116207
C 15.921470566549322 11.343684546951197 266.93950086006646
C 16.918040693883086 14.983284873278054 266.4896625846909
C 20.02361291971353 14.8179942428136 268.65297698883836
C 22.648814171598787 17.513536930146294 268.0817586812122
C 25.655866153205118 15.461146578174601 266.97647431223425
C 28.659167434620027 17.59179592353137 267.88697721138675
C 31.14952387087595 15.874287750453437 265.56742994223066
C 31.857112284081055 12.719466265707124 263.60447212655606
C 32.240224076615355 9.43920546610234 265.41228424368666
C 35.501421140102124 7.989954133642631 266.67957133243743
C 36.25789279819679 4.697976613461126 264.90450500735164
C 39.20470599691911 2.8033560287860877 266.3934651375457
C 40.88768891775723 0.14228593322216576 264.2622011824844
C 42.6604522586357 -2.6761143547042576 266.0525007417626
C 44.078532720099936 -2.0779589635022147 269.5092038117592
C 42.92623945812374 1.236127433265444 271.033601371091
C 46.09126980273391 1.5358703487530037 273.12093507823056
C 48.07350854156979 1.7991461470201155 269.86026142221897
C 45.80594403726036 4.6695900474372944 268.69952370356145
C 45.682263117021265 6.754912491518662 271.8893868706887
C 46.61068314399413 10.035142670357182 270.1703603127204
C 43.367577053796836 9.887383704110732 268.180465211242
C 41.1935559152013 9.051683429398583 271.1987626833312
C 42.61758029677427 12.01357532586049 273.1104829870322
C 42.412074310774635 14.196641192674482 270.0068551487011
C 38.766625390225286 13.25313727491329 269.4855075163258
C 37.94293529511124 13.905001615959293 273.1457499390204
C 39.54181998260433 17.333788081769963 272.7555323159014
C 37.24859089738497 18.17865596203595 269.84302201840256
C 34.15576453769018 16.88327697312034 271.65950926915235
C 35.20581296161846 18.95005458448827 274.68809630070615
C 34.09590761998829 22.152871655748694 272.96610389169507
C 30.446381263501355 21.07686889473491 272.88909420649816
C 29.827461381143355 23.34574327724428 275.8999511454858
C 31.670379835743773 26.70292577655612 275.80485707723216
C 34.72245905428478 27.124753359647425 278.0316335285652
C 33.169353215257566 30.07118319545148 279.8670647511178
C 30.13437438672681 28.04032910282406 280.94173538608584
C 32.239435039254715 25.15961563517112 282.2516663464102
C 34.715851328330366 27.53578177149843 283.89124292563565
C 31.925412007513522 29.46752127373063 285.6069690723474
C 30.561738974180596 26.17117495610644 286.9604920913632
C 33.83240300414872 24.8770106355369 288.3934094802766
C 34.51717180526677 28.311874824559887 289.8884318853757
C 31.071536896682545 28.20519689145821 291.4850549572358
C 31.568163445659856 24.58397599206838 292.5780652892394
C 35.01199000807091 25.350765639396066 294.01648332447206
C 33.76833180316227 28.308276358335547 296.06584358087423
C 30.939970846886993 26.36995570015682 297.70981717518606
C 33.431734250431035 23.695724266561214 298.75216397316285
C 35.75512191493318 26.27303620986547 300.3309272508766
C 32.73198809168473 27.695885351207178 302.1472359154459
C 31.36364690807393 24.383648167636096 303.44696736037673
C 34.80784006698423 23.37200415816257 304.7076556873725
C 35.137310810732956 26.74113974703756 306.4384702997861
C 31.765953367329843 26.326070992549727 308.163578325697
C 32.60014596302267 22.775237244435253 309.2514577700197
C 35.92407225703355 23.68806992954847 310.855494843706
C 35.47003442232298 27.21039413949681 312.20939626507277
C 31.718025141428114 26.971630002079323 312.77353553707025
C 31.861755671424085 24.984136157509283 316.02255542504446
C 34.388830291984185 27.38813212010288 317.55383077956725
C 32.110845454617504 30.29613455754448 316.63535754084387
C 29.22162976561324 28.525327494544317 318.3619541856826
C 31.412290954882828 28.245373260928815 321.46282470399063
C 32.078347346505474 31.988879899421864 321.3500460470526
C 28.333833769686827 32.57765554475657 321.0125732252692
C 27.795260913737284 30.514708266308308 324.16446561260983
C 30.366743326156886 32.73372076714498 325.89113031640466
C 28.91758741426826 36.17102633745634 325.13255443584785
C 25.183353000226216 35.726091014635806 325.7191914155481
C 25.20249533708163 33.32737446247178 328.66248637180865
C 27.82629512375334 31.49750912745473 330.6902140215606
C 29.889853180522874 28.498818056535924 329.6036751477495
C 29.450327353413904 24.86632154955027 330.60497820629075
C 32.0540833304753 22.431859750155876 331.8677832434648
C 31.317758389523043 20.41984383746904 328.7198075200521
C 31.71813000567626 23.303225803621697 326.2640031055249
C 35.12421830559845 24.150641038358902 327.76209526465806
C 36.19841775826407 20.55892189936958 326.98228874131144
C 35.010093085364865 20.25335125044695 323.3740490595003
C 36.67114029270571 23.633371593982663 322.7874100303378
C 40.078353970456874 21.933121338974395 322.9266799390419
C 39.03776334260791 19.79434894822499 319.944714653354
C 36.97258809581755 22.42330928892054 318.1247632618444
C 39.999612006268414 24.729193450625118 318.09315192056977
C 41.96370517692335 21.935954312083624 316.4030602679028
C 39.268785613037046 21.859642972498197 313.7219168332072
C 40.221025053503055 25.478035349576448 313.0329073480046
C 43.756706299059246 24.354840972309777 312.153042458285
C 42.864188379119284 21.5806861916921 309.7143745071944
C 40.81769325430378 24.08893273714144 307.72431371105665
C 44.15758014852457 25.693058009429393 306.8609081419063
C 45.531936229001374 22.24782677052055 305.9331062465186
C 42.8130289973726 21.03962675608847 303.5637837682948
C 42.48867217789292 24.349363259156256 301.70331192168806
C 45.87524110211295 23.8387470702854 299.98269926324184
C 44.60559231606801 20.31890473433079 299.2656954652638
C 41.414233254663664 21.746105600966917 297.74661857415265
C 43.37548352578809 24.148168248145268 295.54618868889264
C 45.44576596950993 21.256547928986915 294.1984233816957
C 42.481373874654096 19.06174810054764 293.25988489266416
C 40.39007691128514 21.694205095334038 291.4520350238169
C 42.807332903253496 24.302808760314765 290.05822730678983
C 44.15513863660424 22.49782216107357 286.99979001527913
C 46.41417596572581 25.464284322134144 286.19705206744106
C 48.074381849728354 25.356861755587456 289.62202004562994
C 49.077073772612444 21.72608316890707 289.0789575380424
C 50.88332708433214 22.666494038485222 285.8665760849606
C 52.60537032271095 25.65594371039971 287.47957999406975
C 53.72256479832386 23.22484378103404 290.1929165949141
C 55.13263602763836 20.75887146495338 287.6551404202915
C 56.8334024550506 23.72351004691829 285.9512988526495
C 59.1924259474152 23.736310894061983 288.9437778104246
C 59.330449503808595 19.920433914212754 288.7108241594775
439
Mode 7 - Frame 20
C 49.26104675912364 36.21492352654684 337.3948472788202
C 50.69409514662681 34.04091428208224 338.74331144792967
C 50.530852860468556 30.788672883037734 336.81617254665593
C 50.29086219385527 33.14291372658343 333.83563182250145
C 47.54147531111594 34.04761583967543 331.38464274544896
C 49.053620595800105 32.293402440066565 328.37223901812405
C 47.929880394039294 31.451056765694066 324.8524584570287
C 47.01572853993184 27.772220779472388 324.39928363944694
C 46.733099409219214 27.290805048101497 328.1849206093597
C 43.38252452694195 25.501172428983068 328.1751493208958
C 41.609440774617 23.46675294265132 330.8687779290993
C 43.18439373901309 20.213608651135083 329.5687282682149
C 41.017311271378766 17.564392483486493 331.1995944339482
C 43.29605267903769 14.516553703901552 330.9148415209432
C 41.92320018987456 11.000648310369522 330.4853038092373
C 45.421935663380324 9.569835534230366 329.91638216364385
C 48.98355231338113 10.750781980474745 330.5496134764213
C 51.78836329061661 11.161578038367194 329.52893801944236
C 51.34520273606639 9.36068210964888 326.2051401009547
C 48.59588827769344 11.851978570839858 325.4096366853923
C 50.83203573273395 14.736587815815009 326.4758920548565
C 53.75860545945961 13.316879177299125 324.49658102714324
C 51.90271950190499 11.898156707281911 321.4886582207328
C 49.405652401218084 14.754057796655358 321.10835854778503
C 52.27895256210005 17.228584678361702 321.3838647486946
C 54.338680155258515 15.710256943832103 318.5615744769722
C 51.166881253002764 15.046633471911463 316.56350652627475
C 49.83350489104321 18.596979052801498 316.8811561160942
C 53.24243800910227 20.16226139106745 316.2385542230689
C 53.77028699207686 18.026997929970406 313.12542901604996
C 50.29430929517803 18.905983015048506 311.84948628181445
C 51.02353539316166 22.59896011491549 312.3489287446635
C 54.40853721385023 22.627467505836453 310.6180918773795
C 52.9363117139501 20.643831253914158 307.7183783941953
C 50.338149280265746 23.389221877920168 307.24413197230047
C 52.897571297322784 26.205238679796082 307.30926816039374
C 54.950071066979746 24.476264910983687 304.6147791946498
C 52.036595523294245 23.450463599636656 302.3988127104627
C 50.52634300069234 26.945164550509514 302.5398104876026
C 54.016915814200644 28.33067087818189 301.96195489078383
C 54.09206199260244 26.038745066606918 298.9212898573982
C 50.88553346729989 27.59947224178054 297.56999797307566
C 52.31983170144703 31.07943017449686 298.13774425683295
C 55.406264074356166 30.02361056839875 296.1657478001225
C 53.891808393163124 28.723566478420636 292.91840579088114
C 51.69765833719366 31.828899967839966 292.6341550775693
C 54.420563697059194 34.442209528275605 293.12131176287915
C 56.78565631985352 32.24181174325727 291.0939579727616
C 54.721400303950865 32.09778012619023 287.8911928881987
C 53.48198413185804 35.158125120062564 286.0109507920789
C 50.59844200849427 33.32875975381953 284.3193982800209
C 48.89900706885551 33.246438141216515 287.7529317989244
C 49.88190443389218 36.47722117682367 289.53493861389455
C 48.1691476580629 38.34257854567315 286.6766238219391
C 44.903871667819224 36.41696104228015 287.16060920433574
C 42.352317171110556 37.99731987658729 289.54539148295373
C 41.24457427777826 34.507925069601576 290.6186777136454
C 44.67312735332384 33.75048238624119 292.11652897739594
C 44.64254929366091 36.98002839742879 294.0955451106606
C 41.8267298387911 35.11448767469425 295.88001528574904
C 43.69556693523844 31.840536001891074 296.47641613300027
C 46.9101427899837 33.607490752017 297.4558493664032
C 44.927258915197434 35.7436105214691 299.89523217332106
C 43.397856106570444 32.624200834583775 301.4594574514536
C 46.71951506401103 30.780163782234524 301.5682727646364
C 48.52459443969262 33.66944895818571 303.2720364485346
C 45.5952653484676 33.864926341044274 305.6947182249805
C 45.86978278402559 30.124352311904865 306.3522272296811
C 49.626381349954414 30.598526164941294 306.7515937444938
C 49.32864852723044 33.55321204749499 309.148665674162
C 47.301050121322966 31.33638893501754 311.4725336289813
C 49.29397212854457 28.130566856860963 311.0527101854741
C 52.47850202174007 30.094416005649755 311.79158575270094
C 50.98007631943335 31.530734324526072 314.98442665069047
C 49.87136972704284 28.025468346667974 315.9433908367804
C 53.3270168938333 26.46051640814585 315.66474490899776
C 54.962146856196114 29.511149744445003 317.2472909910156
C 52.65659909967615 29.616037295952655 320.2751450669119
C 52.74913466416043 25.81824468183088 320.5716444471923
C 56.55231641018206 25.61088686201183 320.69268131443664
C 56.7390039581964 28.8028338540618 322.7792577990851
C 54.55402616488828 27.36546829870363 325.5722122455335
C 54.47299031963756 23.55471679679128 325.3711155855148
C 58.273395338536666 23.356205528757492 324.9480304862563
C 59.759000280299574 26.461130291887716 326.5877039542949
C 56.85509272486561 27.169573159692938 328.9840450691656
C 57.440136954011855 30.90388166343162 328.56172224348296
C 54.919255145236505 33.42872936004395 329.85944209757935
C 52.73271653866285 35.78554224381356 327.84383835477166
C 52.21534222772114 39.401769744719196 328.8561442611167
C 49.04238625221238 41.25947384931717 327.86113303004964
C 50.30002190080457 42.51576626890508 324.49393163223726
C 52.168428758374695 39.34968406742369 323.48733770254603
C 48.99264679132195 37.37551508220636 324.20986513763245
C 46.62229278981577 39.599236718734026 322.222905137504
C 49.05642653862802 39.729141575348585 319.2981590217986
C 48.95516820440341 35.932094888635305 319.0405003806121
C 45.1687455683464 35.85736158813457 319.4035870943303
C 44.75844973052712 38.811630713058115 317.05150564834526
C 46.844788474965256 37.0387124487026 314.43108268884424
C 44.504776179894336 34.04809482029591 314.55097116760874
C 41.54491354347647 36.43431598435539 314.5817297227336
C 43.00491939203939 38.23620262587263 311.55723741616015
C 43.55089228830335 34.93295938825266 309.7370819665589
C 39.85020259121782 34.07078909053368 309.91325195480357
C 38.75519374343539 37.647159895834136 309.22635780386594
C 40.73148634903956 37.82570195812496 305.9817812081792
C 39.4238004044083 34.36011199718043 305.08765513772124
C 35.82435097427915 35.565025315843776 305.3804920691876
C 36.825455890342056 38.85347403569857 303.758365724111
C 38.264155164701336 36.91454103591025 300.8182413995881
C 35.08532496245088 34.861274237815984 300.3670246709542
C 33.220687998162305 38.17768841376193 300.39517053240047
C 35.31775943051135 39.644012578893665 297.57365162409974
C 34.88070361003706 36.417346809213754 295.6124142044224
C 31.100263558043032 36.76525153364783 295.8696412139125
C 31.40638653939003 40.27726170753106 294.4151969544606
C 33.50078458987357 38.99891430696611 291.5071872933633
C 30.859486402982313 36.37237785223173 290.75622725240186
C 28.093850546549266 38.96961195528711 291.03812676544914
C 29.880144020294484 41.045006733686385 288.3861288798201
C 30.32980403834765 37.95799843685074 286.199832116616
C 26.600808581232908 37.21917418411162 286.47025813713105
C 25.260899581086395 40.75071034646556 285.97715844380645
C 27.920925686318387 42.01503499427719 283.5152706840243
C 29.047360859600452 38.9155687117764 281.5968853537333
C 30.04168669109261 40.92528337799615 278.5214496960054
C 32.324744840093786 43.48391266784291 280.19610440095954
C 33.38377728135493 41.35921032860489 283.1898856633043
C 36.962391666629436 40.92745785548375 281.9467590479605
C 37.52743581449516 44.691103318881304 281.73880472256656
C 35.81944888099503 45.47206472655255 285.0732483658889
C 37.61103458103028 43.00553010587081 287.3746590249087
C 41.28205293395654 43.57672657025335 286.53762275953653
C 44.60401951397838 42.9015767701832 288.2329768962028
C 44.93763839193127 46.461585827796895 289.6255688304888
C 41.29880428663899 46.402775065020094 290.74913008485254
C 41.70078610341981 43.06399157465842 292.53076151744887
C 44.88198210710637 44.12159775824312 294.3464290678688
C 43.21090111809654 47.25632256439193 295.71587650191293
C 40.16258290707946 45.31410640255935 296.90992390670937
C 42.2679200020336 42.70722023602193 298.7108421811608
C 44.72085767906964 45.216969601193696 300.1899084797654
C 41.79717434601029 47.20825121920457 301.59166999321053
C 40.12279341111298 44.06261552770501 302.8837496841866
C 43.2255602689517 42.93713862021388 304.77650927520983
C 43.709064171520254 46.32601276688267 306.431819536908
C 40.0909094592478 46.12835550209507 307.5831659269188
C 40.747484974351025 42.557434581165815 308.72664990188457
C 43.98373544804017 43.49625363220037 310.5107727189944
C 42.365252597504124 46.50442359541356 312.18011891161586
C 39.885122180889375 44.29442240913828 314.0284854752335
C 42.64158124011655 42.116202328906226 315.4785785845631
C 44.60887946951205 45.16110829042081 316.61076125565654
C 41.51645922069183 46.858788642061036 318.1288168669074
C 41.490201753800136 44.406606845743084 321.06343884637977
C 45.271640487871416 44.58347728259415 321.2665652540898
C 45.03760091827646 48.35936125030347 321.1926886668371
C 41.998823725376475 49.39686702164861 323.25328609154263
C 39.15851931028222 46.95175593581927 323.96135980617294
C 40.2115414991785 44.97700482758505 327.0466559026465
C 39.38888775407044 43.61566173719252 330.4563724269168
C 42.39332454217853 45.39673307193306 331.9575782489354
C 42.08451068807343 48.72256206012971 330.14976347429496
C 38.27569460391181 48.96121631856917 330.31062297963115
C 37.627666427384895 47.04522924027302 333.56529832029344
C 34.88056259825978 45.34311469321434 331.5582667720185
C 33.38704239301934 41.87121519457087 331.8613914720211
C 35.9744669979998 39.306091212427994 330.8406297641007
C 35.45991340748846 36.375643625515956 328.4808524311388
C 35.24057709628273 32.947101384150486 330.10365472937076
C 37.316016564202435 31.494799270006332 327.23472025344824
C 40.03583221412608 33.99432274633259 326.35469682822276
C 42.05287971688256 36.03928787288809 328.86863113854787
C 42.186105302201675 39.83183631103509 328.49911234943266
C 39.28992927204276 39.775705690334604 325.9858662646458
C 36.31427806507403 42.11695661771561 326.2938360193526
C 32.8919174728451 40.504662904573195 326.012475354905
C 31.40269678243564 43.40578087637921 324.05918204097003
C 34.256533798099454 43.2456993172685 321.5563288640617
C 33.28205967914855 39.661335761841414 320.72111925006993
C 29.682029604402025 40.684534887877575 320.0517038477099
C 31.01765877395893 43.171146097809505 317.5003950860481
C 33.41898863162318 40.577371363351304 316.0821076403059
C 30.877843733017965 37.73716928343406 316.04146403039
C 28.16230674672463 39.91869546892643 314.54105029820084
C 30.438452831116788 41.189291550049845 311.7701725476897
C 31.543651414827977 37.74148980413448 310.6025487419457
C 28.086625895050435 36.22647739512912 311.1456823786532
C 26.464663609242628 38.82950294831092 308.88386808392755
C 29.188791705135746 38.407624507334944 306.2695560406166
C 28.906240892213756 34.61117396127428 306.3571208378421
C 25.105284713090704 34.73443919657156 306.1728327611511
C 25.441055216261255 36.827566715791455 303.0188020102867
C 28.21442869101051 34.646938534357425 301.56871287796434
C 26.088081458359348 31.53299217466052 302.07134545210704
C 23.164752607413625 33.15728189104407 300.2614424600958
C 25.431834495622862 34.55229730859621 297.5456459168808
C 27.26696165587966 31.289788294695718 296.86357359481224
C 23.92388443712106 29.511168935851664 296.43202463338235
C 22.72362519606281 32.185416255430916 294.0006073294959
C 26.065857815828988 32.068719753035204 292.1608757225721
C 25.874799733174218 28.28707718106403 291.7788453752593
C 22.205845065191014 28.467949334231193 290.75238552686983
C 22.952418812203913 31.105676683009257 288.1162881802678
C 25.86449982932283 28.97269519112479 286.906150350296
C 23.44484449141982 26.13579485641766 286.1116486384631
C 20.853422884685184 28.366210595441053 284.4174072608266
C 22.805085628605053 28.526011506388613 281.14583716853997
C 24.424309826829298 25.092749037428753 281.2373881068057
C 25.17449873409633 22.240471254641175 283.5453323882631
C 28.5935109961398 20.71727207845458 282.9643470796487
C 27.81023783824644 16.99086599117298 283.18585111108905
C 28.93820948571567 14.440861379691363 280.6134595012381
C 27.496903163733542 10.937818320970809 280.32595481437033
C 29.42252327930357 8.058714143994605 278.77058813409286
C 27.68746235082586 4.744405307235486 278.03586447343633
C 29.865050374928426 1.9937348888441873 276.58684091417496
C 29.33613890044702 -1.5639246448071318 275.4416946459798
C 32.46759948470115 -3.7206551452891037 275.4921619187471
C 33.23826356871338 -7.432015010598479 275.86656978266757
C 37.04382592996204 -7.536621872261538 275.65754373024413
C 37.5053958944781 -4.0429017200114 277.10918669017263
C 38.74310687062627 -2.0963777391057747 274.07744439338893
C 35.74067328947983 0.2257810950396583 274.10922651830276
C 35.89954608458229 0.39417828734679483 277.9190472122552
C 39.524330973680236 1.5306690339504743 277.72399950262815
C 38.52161802310974 4.011338109622302 275.0146602601445
C 35.73576171459874 5.442387533128613 277.1749129193886
C 37.95917956221386 5.643362365908436 280.26505941268124
C 40.53939826630782 7.557146009049181 278.21802010714555
C 37.90344739569253 10.017348971513302 276.9857260207228
C 36.61039791662057 10.224813570683994 280.56085504499856
C 39.834644567466746 11.651316989423062 282.00343187214685
C 40.340792000747534 14.23272130501106 279.2371176578606
C 36.85435800413691 15.618430846973485 279.887845436519
C 37.37101608634713 15.384209276516874 283.6574933018775
C 40.42930558690909 17.62864962669915 283.3550134039873
C 38.583437695508835 20.034538189525563 281.042739385108
C 35.89996365779913 20.845576205825623 283.62438918772256
C 33.12479578350387 18.30275631680717 283.0387740844518
C 31.446637215723797 16.325119614919636 285.8089483283256
C 31.949095932572412 12.998753970427074 284.02749814553846
C 29.645380277801046 10.022868717316511 284.6795322830362
C 30.806077993768337 6.786797659777687 283.0287078501786
C 28.47433332468392 3.7773927896474495 282.98551798706694
C 28.42682431047947 0.3449857946018552 281.37885388792546
C 25.4916043498398 -0.16488874409935905 279.01121166456994
C 24.49598944475399 -3.354577192850733 280.85394830846997
C 23.67238818277541 -1.3523430716815397 284.00876600998913
C 21.460994682400607 1.4634552007722565 282.65563647600396
C 17.77498398363365 1.9067266589064518 281.885761201993
C 16.98304267273803 3.767668933495965 278.67354170214827
C 14.040707648949075 5.783506554475815 280.0063174289416
C 15.191254310623997 9.331277202595992 280.70231648541454
C 18.82593982450466 8.21550788879504 280.7178395729591
C 20.246516300891503 11.385047036829357 279.15357984093896
C 18.353743240843027 13.765955364631553 281.4479476249846
C 20.53705369742458 16.07944203693504 283.5094475559787
C 23.475078688240345 15.741987832089631 281.1042114851826
C 24.25303146051163 18.20571559745199 278.32309296033793
C 26.928764052748086 15.987298617012014 276.7702971906538
C 26.360695693361137 12.286335037278528 276.0799885567072
C 28.937476345311815 9.966210043917261 274.5139915468199
C 27.763908405892003 6.541348913918024 273.3817270829908
C 30.434686157415726 3.937079208824983 272.6586162629071
C 29.867939294113878 0.48740278516669444 271.2170089792281
C 31.922011211314075 -2.207236491708695 269.5042311881847
C 30.78093814243406 -4.06272953359246 266.38634872480503
C 30.215850432401353 -7.8331023161082305 266.36543006452945
C 28.955204316778087 -8.675732892424893 262.89222735309943
C 29.80249846322215 -12.376633976139276 262.5910051460697
C 28.326624655058342 -12.458595804133651 259.0930269998014
C 26.001265944059696 -9.447819279822125 259.4824475852362
C 26.292481876867782 -6.228350345596668 261.51156032971375
C 25.574479455989955 -6.364353020059864 265.2356036074838
C 26.055370572984206 -4.102493414057993 268.23277945070646
C 27.829360968441133 -5.316455470796453 271.34259168233444
C 25.20382608698216 -7.2881926840201485 273.20538478170204
C 25.055492281944698 -5.121249455958442 276.3266438183331
C 24.219092831997557 -2.089982639623954 274.16851014605174
C 21.289275077153565 -3.5399539104920352 272.2062740596159
C 18.619604113207536 -2.9531470643212234 274.9180147677217
C 19.61814660623127 0.7165318372650299 275.00131147537917
C 19.75114704956553 0.9276951758232639 271.21487832696397
C 16.278636655257042 -0.5815886807781272 270.860735279159
C 14.777199203189062 1.981043431952322 273.2658501752441
C 17.001407855669818 4.919557743424033 272.3515755465634
C 14.024949916443356 7.210703228504438 271.67977887379556
C 13.232496899350535 7.110570731475408 275.42367244142883
C 16.59954897602126 8.548681281645296 276.4851224474676
C 15.870509281314671 12.218815120305875 275.7863734045075
C 18.292530360501146 12.577956052107671 272.8593076726853
C 16.33074868650805 15.186997141570307 270.88733745341045
C 18.067862268029288 18.545061977098484 271.0889081576498
C 20.878823187352804 17.142663867337422 273.22006535468574
C 24.578630584108843 17.165419217001286 272.33261353694024
C 25.891348749066875 13.661687442795367 271.59162217107934
C 28.793586502577963 11.915637670764488 269.8905874408822
C 29.6986515707157 8.296151642602565 269.26063650713775
C 32.818019038050856 6.159041821309631 269.46834162065755
C 33.549663037836694 2.479965556871539 269.0371372661652
C 36.200628758170595 -0.18471241183073026 268.52779882895385
C 36.265187579074315 -2.333356537770936 265.4102562129519
C 38.58546253485336 -3.8845125837884877 262.8471776478458
C 38.894396224668974 -2.9740583295064975 259.1798330882972
C 39.135918252595935 -6.57413040618483 257.9270817185942
C 35.36582431532505 -6.843684718734916 258.42348280946584
C 33.01844957615424 -5.582040259395947 255.7482004502696
C 31.438754752787016 -2.863394462964216 257.9082923138909
C 34.22549028522612 -1.2562164649347196 259.9244563097633
C 32.660496057672496 0.021623949886725384 263.1562818710088
C 29.179936687763515 -0.4657960288447765 261.72889549980147
C 27.89589748544661 -0.07095017494212062 265.2881763339355
C 28.780697325601317 3.6266814614007616 265.5253214608069
C 27.19295528272481 4.1395527011734075 262.10073362704713
C 23.94613162828805 2.586968581788238 263.32685032585556
C 23.977816320927758 4.585683457808408 266.56760419689334
C 24.715923417425888 7.893547024693686 264.8284416334577
C 21.988206714085766 7.349472547086831 262.22048861929164
C 19.42916978017368 6.690016838584788 264.9518032765747
C 20.67742708118711 9.697677013730427 266.91786042751033
C 20.193028794533927 11.816502256949798 263.79206160553827
C 16.697258800160224 10.405949060477868 263.31062834633946
C 15.924028657649664 11.350577175494415 266.92900114215206
C 16.921354465263306 14.990442119184918 266.48282735510344
C 20.025863844956493 14.822788502562661 268.64751656366974
C 22.651759782781255 17.518420924400655 268.07989990522907
C 25.658985711784812 15.466462083283783 266.97423781097945
C 28.662171458594802 17.59573063012508 267.8878002038811
C 31.153413592984155 15.879957302955345 265.56799709047743
C 31.861595357948875 12.72681885736614 263.6027313202788
C 32.2434028185926 9.445026764839698 265.4080320886571
C 35.50380570630623 7.994245704870912 266.67569735239965
C 36.260686058326556 4.703760070927259 264.89813977839975
C 39.20647625629208 2.8073833499755674 266.3869279639086
C 40.89011776156645 0.14795518524101683 264.25413219416413
C 42.66151915333154 -2.672330164553887 266.0428277649264
C 44.07795939799008 -2.0774561216459717 269.5008045539392
C 42.925452292394056 1.235487096115052 271.02758278034446
C 46.08949554178207 1.5328725723393621 273.1167905400778
C 48.073427277872526 1.798674256356884 269.8573283106351
C 45.806926896470294 4.6705143736766885 268.6979567777798
C 45.681975919724636 6.753079148397023 271.88961619270833
C 46.611788216075304 10.034670204820335 270.1738922858835
C 43.36965669640615 9.889100671681994 268.1821956561909
C 41.19397854121883 9.051135027391966 271.198723442515
C 42.61751089795277 12.011190175295773 273.1137045403978
C 42.41390547162739 14.196912567375671 270.0117917610707
C 38.768547673237904 13.254317438508343 269.48774101289433
C 37.94308994814819 13.903183009753569 273.14818887282536
C 39.542616976984895 17.332099519359634 272.76157301207655
C 37.25100353331705 18.1795911873945 269.8484822794164
C 34.15704842052021 16.882992066959183 271.66240446406647
C 35.20578203442406 18.947087271845508 274.69323814020095
C 34.09704980965279 22.151196912473594 272.972735155528
C 30.44743641900065 21.075689751304317 272.8934089390712
C 29.826876262985216 23.342063080774253 275.90556503963995
C 31.669781233880286 26.699110404607662 275.8127703467925
C 34.72170819924763 27.118594548404168 278.0406672987737
C 33.167758098872014 30.063607289321087 279.87650052914915
C 30.132121362576743 28.032611970660213 280.9496285337562
C 32.2366959877452 25.151284473228593 282.2590520218393
C 34.71301575897736 27.52632061565514 283.89971605243466
C 31.92217309127258 29.45801704402709 285.61506621266636
C 30.558223418317834 26.161282757790776 286.9680143054774
C 33.82833583854224 24.866429857953374 288.4012487387278
C 34.51372781894517 28.301932998854316 289.8959441443018
C 31.06815327900346 28.19596972871165 291.4925048902918
C 31.564718077059464 24.57471230313763 292.58617833922625
C 35.00868131332411 25.342128576715332 294.02450014534617
C 33.765741033473184 28.300881209014292 296.07276250601507
C 30.937651096565677 26.36333428996336 297.71805455111416
C 33.429540730510254 23.689725996842245 298.7614508056424
C 35.753323200418784 26.267750929147688 300.33852141954236
C 32.730663305595435 27.691567238457235 302.1547157703271
C 31.36259641080456 24.380117596717966 303.4565523867697
C 34.806986861079714 23.369193859547554 304.71718917797097
C 35.13686614756505 26.73917862897157 306.44615426274464
C 31.765945656518596 26.32509061855088 308.17227226373785
C 32.60033545044708 22.774945769051474 309.2619506473308
C 35.92458026127182 23.688577548932127 310.86483638633405
C 35.47086687476735 27.211616776197356 312.2169026341059
C 31.719021411384773 26.973222343415813 312.7820570477926
C 31.863534144582157 24.987631066131247 316.03223768918167
C 34.39095180806667 27.39245312177112 317.56157434862473
C 32.112804125745676 30.299959905864867 316.64203074610333
C 29.224048828489575 28.530176858176215 318.37037956871586
C 31.41548075532391 28.25204906553781 321.4708979726946
C 32.08154647142136 31.99547412565581 321.3558409855109
C 28.33694797358286 32.58404732134118 321.01895139015136
C 27.799107155323036 30.52292763392172 324.1721488005339
C 30.371000039918798 32.742934314566355 325.89693918897956
C 28.92165299553961 36.17979435519494 325.13677991619517
C 25.187545172764878 35.735200431139674 325.72451433461237
C 25.207372453834243 33.338184268958535 328.6691808795423
C 27.83163519119007 31.509498665979006 330.69735955198524
C 29.894954819577986 28.510197268629167 329.6120543912668
C 29.455672750093594 24.87828007166888 330.6155571388467
C 32.059719081698816 22.444568673401925 331.87915669914264
C 31.32267900255662 20.430731256110423 328.73250780693934
C 31.72245065771956 23.312688212027222 326.27491685947825
C 35.12888426247779 24.16099886735186 327.7717014402961
C 36.2029513429381 20.56883011294432 326.99374578213394
C 35.01374622404409 20.261180880471954 323.38596252480926
C 36.674635885091206 23.64087388359858 322.7969029010229
C 40.08188489491323 21.940747600520154 322.9363827918335
C 39.040535196980564 19.80019397203666 319.95591141538307
C 36.97483491637649 22.4279902900858 318.1348105964948
C 40.001862780471285 24.73385529768173 318.10111394310337
C 41.96547530070827 21.93958450430549 316.4121646003689
C 39.26990762859253 21.86173351490506 313.7316588569532
C 40.222021308921114 25.479694715984166 313.04033287356015
C 43.757484495623714 24.355972141638805 312.1603249724849
C 42.86438488013553 21.5804689506926 309.7233654476681
C 40.81747718112215 24.08759879806062 307.7323024859916
C 44.15718002093366 25.691248728003956 306.8673416859671
C 45.531264275819034 22.24548319686545 305.94106071675066
C 42.81187632725384 21.036092644725375 303.57284238096236
C 42.48712980265788 24.344793465246678 301.71063899223503
C 45.87329674332436 23.83324862759476 299.989594325155
C 44.60337532699827 20.31310165746956 299.27457412470926
C 41.41179154189862 21.7395089771914 297.7553191673613
C 43.37258713950204 24.14042451831798 295.5533300305067
C 45.44242022951032 21.248040219554746 294.2065956430322
C 42.47763259667969 19.05294278565299 293.2691255785894
C 40.386121177657735 21.684152528475785 291.4601430693517
C 42.803584850570815 24.292525306489672 290.0655403860834
C 44.1510277572617 22.486383458196446 287.00769219600284
C 46.41007125883296 25.452425982187854 286.20334405776737
C 48.070641890449444 25.34625636038747 289.6279760368256
C 49.07311751999883 21.715183680614647 289.0863913626275
C 50.87891666096642 22.654008967071846 285.8732854269549
C 52.60129775315917 25.64419440170631 287.4844711090355
C 53.71885508998453 23.2144007658314 290.19885548031374
C 55.12844204083376 20.74711021032169 287.6621084284617
C 56.829004494393565 23.710862270405386 285.9564741845391
C 59.188527927654654 23.725118356352517 288.94853628261757
C 59.32639002701982 19.909096366019003 288.71757452112104
439
Mode 7 - Frame 21
C 49.26596062375999 36.226010976232445 337.39463591287637
C 50.69930831862715 34.05258993692409 338.74373476947704
C 50.53574768707406 30.79953935222945 336.8179568267158
C 50.29516882403537 33.15252743198407 333.8364793420628
C 47.545351213146326 34.05621844219564 331.3855895229564
C 49.05701983531872 32.300805864188845 328.3736370828307
C 47.93271602914212 31.4570516530156 324.8543689948047
C 47.01845107969615 27.77803539962127 324.4027479802186
C 46.73644747578769 27.298149817012078 328.1886438622653
C 43.38581614842305 25.508553269358686 328.1799750701367
C 41.61311691472217 23.475270821220448 330.8747454387183
C 43.18786888996252 20.2216214350167 329.5757709420419
C 41.021072881618835 17.5730713411454 331.2080967492656
C 43.299985270209646 14.52524839106291 330.92454632227043
C 41.92724544993896 11.009057730097348 330.4970177099865
C 45.42595495078619 9.57816515114983 329.9281037576574
C 48.98763214685801 10.759597266550445 330.5600813708608
C 51.79222819386147 11.169980558405346 329.53865229552025
C 51.34846276235868 9.367523880432561 326.2157578877436
C 48.59892105779935 11.85835852244835 325.4196159312586
C 50.835181176253926 14.743518513785556 326.4841290358089
C 53.761414099981124 13.322954813491782 324.50488565516434
C 51.90495022690939 11.902884996287222 321.4979522827569
C 49.40777835243851 14.758580003131385 321.1168377025083
C 52.28110798475818 17.233256802437833 321.39072445197905
C 54.340317904165516 15.713718663482208 318.568700236205
C 51.168146004901 15.049248491905978 316.5715092829788
C 49.834830875136426 18.59972618929 316.88784805648135
C 53.243659240889194 20.164741692657504 316.2440088406489
C 53.77090428335759 18.028175952380316 313.131656823891
C 50.29473240535647 18.906668645672802 311.85591608326433
C 51.0240788883486 22.599839868022222 312.353732836523
C 54.40878633138814 22.62761159358878 310.62232287367334
C 52.93604776331704 20.642832830786222 307.72361937699173
C 50.33786938100482 23.38806543745161 307.2486614617472
C 52.897332834005546 26.204083889027633 307.31233823946167
C 54.94939074642489 24.474032655551408 304.61819400627127
C 52.03557395484427 23.44746536877227 302.4030162966212
C 50.525394823663056 26.942235142837003 302.5429338153232
C 54.0159256936643 28.327496628116393 301.9641105420849
C 54.090595297304404 26.034498060581555 298.9242638813254
C 50.88391669302448 27.59480570643541 297.5728451527316
C 52.31834239490335 31.07495587969844 298.13919192864046
C 55.404522664136195 30.018466687360863 296.16719581982954
C 53.88962949978483 28.717338228202117 292.9205075285494
C 51.695464710499266 31.822606275965892 292.6354467150617
C 54.41845896354998 34.43604441621022 293.1213423734644
C 56.78326612414285 32.23492027618259 291.09444477365435
C 54.71859222931252 32.089805514593564 287.8919973107886
C 53.478938824223796 35.14949708355212 286.0108477751046
C 50.5951471012792 33.31960491629531 284.32032105457506
C 48.89616038424396 33.2385281371354 287.7541033282264
C 49.879342228432556 36.46987898281973 289.5348344011995
C 48.16621659179756 38.334289585384205 286.6760959593619
C 44.90091350332171 36.409004194015054 287.1611599467076
C 42.34969730497789 37.990281929880354 289.5457244773063
C 41.24217602672776 34.50133928594161 290.62051159376426
C 44.670881591727884 33.74414769392099 292.11805369736186
C 44.64063951689004 36.974336428302806 294.0959913744934
C 41.825034159871734 35.10942991275145 295.8814895686584
C 43.69385526155697 31.83558117044827 296.47871525705716
C 46.908585842343236 33.60282603410816 297.4571109875006
C 44.92610611125141 35.73984123242294 299.8960404531392
C 43.39686012361228 32.620980433066016 301.46156426143955
C 46.7184855956284 30.776939742714386 301.57055781200285
C 48.52386732126289 33.66684203162914 303.2730218819651
C 45.594898659946395 33.86324995579127 305.69606515536685
C 45.86946690015856 30.122914121744397 306.3549005480621
C 49.62612423656527 30.597203230094557 306.7535175655333
C 49.32881038865367 33.55284012559266 309.1495165174645
C 47.301545969865664 31.336918050142554 311.4745497330223
C 49.29436213385816 28.130917070383255 311.0556272940401
C 52.479042240338245 30.09504596418895 311.7932142326484
C 50.981163853078236 31.53267194848233 314.98574495271777
C 49.87258425452357 28.02777259734843 315.9462765899444
C 53.32819677821903 26.462727192293777 315.6676654269093
C 54.96363405741189 29.51401182584438 317.2486941587051
C 52.65862163198817 29.620164747671943 320.2769266488601
C 52.751209781123805 25.822490681301776 320.5749478430997
C 56.55440937196424 25.615195914246517 320.6953992173435
C 56.74145898361866 28.80802137092848 322.7806577078093
C 54.55697429804202 27.371798149001886 325.5745895362747
C 54.475934933308466 23.560972860520017 325.3750543531889
C 58.2762815337077 23.36231320792193 324.9513717855912
C 59.76214224290556 26.467917882184395 326.5895404108643
C 56.85863650607047 27.177287902416392 328.9861113892021
C 57.443586892404895 30.911430325797294 328.56218589918535
C 54.922913059233444 33.43675399578669 329.85938731966723
C 52.736027012905275 35.792763023689844 327.8432333707304
C 52.21881232101009 39.40940560376473 328.85419471603456
C 49.04566429712397 41.26668791384758 327.85898601129713
C 50.30277324434446 42.52163444819105 324.49107754084577
C 52.1710236784741 39.35515143383287 323.4854071506018
C 48.99536130456046 37.381260413136516 324.209262783279
C 46.62467798883534 39.604169234644274 322.22181578319976
C 49.058333942480786 39.73288652390394 319.29660366788653
C 48.957050243588554 35.93573706776231 319.040451325247
C 45.17068429628246 35.86112813874903 319.4042338512923
C 44.75996666960185 38.8144418331161 317.0510643683094
C 46.84584774646535 37.04045155382802 314.430992622216
C 44.5058342441971 34.04987146875647 314.55244111875777
C 41.5459850948873 36.43611434791339 314.58278322561813
C 43.00550059033715 38.23681163361782 311.55735891244916
C 43.55117626899383 34.93285721529771 309.73836642561224
C 39.85051703914623 34.07076838228831 309.9154367734754
C 38.75540913716871 37.646881038867804 309.2273747897211
C 40.73123954503509 37.824199912672036 305.98244702430094
C 39.42338806513546 34.35825746971988 305.0897813576265
C 35.82399269296861 35.56326046300672 305.3827004636034
C 36.824911539321825 38.85116412780361 303.75928530214776
C 38.263188544906725 36.911157666277305 300.81963969811994
C 35.084276828856964 34.8576683015436 300.36957991553976
C 33.219675509400844 38.17412314355004 300.39695461468966
C 35.31645939895457 39.63959546774549 297.5746974588331
C 34.87900535583511 36.412275216327345 295.6145167681782
C 31.09862028260001 36.76026877155646 295.872256994059
C 31.404558967985746 40.272083573424425 294.4170818164837
C 33.49850517388667 38.993014764871475 291.5089730213356
C 30.856981338432146 36.366425638076116 290.7590969439565
C 28.091381235606878 38.963780912121734 291.04108477611635
C 29.877212596853134 41.038919895610064 288.38849798525945
C 30.326348306261607 37.951616227731506 286.2026630115773
C 26.59745148066359 37.21280923082005 286.47401453035997
C 25.2573550444378 40.74420166558466 285.98061049218506
C 27.916892785467326 42.00836181815192 283.5180464544619
C 29.04278157361486 38.9086533825412 281.5998196612774
C 30.036353913254512 40.91794729124366 278.52385030093313
C 32.32000688447115 43.47663836821066 280.19758743368794
C 33.37963162382118 41.352456182291846 283.19144540464424
C 36.9580117763893 40.92004071441423 281.94742268827065
C 37.523256629876826 44.68355318199695 281.7386873636883
C 35.8162528340311 45.46500172781918 285.07356730822494
C 37.60828878318598 42.99831642968238 287.3746255461086
C 41.27921075263156 43.56884488571317 286.53650567981845
C 44.601468607711276 42.89397493386671 288.2314036602033
C 44.93573736331608 46.45437762269205 289.62287548817943
C 41.29711591741666 46.39627273856098 290.74708096239584
C 41.69899776339814 43.05790324818578 292.5296580617418
C 44.88050756821324 44.115961692077086 294.3445074866719
C 43.20971318367349 47.251248591016264 295.713115182996
C 40.161363728957696 45.30950213258922 296.90814909696866
C 42.26683210721021 42.70311807020097 298.7096484599869
C 44.720058221450834 45.21333375403095 300.18754304249455
C 41.796504165955724 47.205232135667345 301.58888839813926
C 40.12218401425735 44.06002495585522 302.88225232473957
C 43.22522253733725 42.93518852127702 304.77498831109403
C 43.708972286759824 46.32473760927693 306.4289544393838
C 40.09090056946136 46.1275067379933 307.5808257672181
C 40.74763077725769 42.556986323365464 308.72553548715075
C 43.98420040023826 43.496474906140314 310.50878669387384
C 42.3659646972089 46.505348855571484 312.17718502286704
C 39.88611603199154 44.296034851120965 314.026765803363
C 42.64281653510813 42.118382275035955 315.4772607965616
C 44.610340417240195 45.1637699306945 316.6078904357602
C 41.518173462505644 46.8621061958096 318.1257551362852
C 41.4923816434628 44.41108477539122 321.0613218543478
C 45.27386345484568 44.58804067649482 321.26377337515856
C 45.039820000091396 48.36391325151898 321.18843612317374
C 42.00135924002575 49.402254166033224 323.2490922063056
C 39.16112312126336 46.95742672960355 323.95854775524117
C 40.21463841614385 44.98387828458142 327.0444620369149
C 39.39250959559255 43.6238761042965 330.45483802628684
C 42.397185640889724 45.40554355590054 331.9548858313807
C 42.088095507192875 48.73066845492289 330.1458128320513
C 38.27929748089454 48.969386952035656 330.3071494702097
C 37.63175746519903 47.05467755359121 333.5626766032844
C 34.884348885148135 45.351766275904424 331.55672199761256
C 33.39087578878234 41.87997483050542 331.86142990888607
C 35.97814571286017 39.314445933231816 330.84128071061417
C 35.463243211389326 36.38307073054527 328.4827034659771
C 35.24416843572351 32.95516254725549 330.10686094936733
C 37.3191601256511 31.501750729706334 327.23812927790004
C 40.03885948960421 34.000932861916866 326.35682714152955
C 42.0563043983268 36.046876419120736 328.86967496189766
C 42.18945394737541 39.83928233498293 328.4986324531577
C 39.29286789172679 39.782157034513446 325.98585313377697
C 36.31725093116625 42.12353078478904 326.29332899147846
C 32.89485493401935 40.51111004781188 326.0131111406788
C 31.405318018603815 43.41145411896412 324.0589053583343
C 34.258746289688176 43.250382697219734 321.55567385543486
C 33.284127433673184 39.665688889517476 320.7220146279368
C 29.683996220552096 40.688613010423175 320.05275481004304
C 31.01919623806156 43.17420419210505 317.50023750681515
C 33.420263926541885 40.57986246262189 316.082609136377
C 30.879104800998807 37.73964054139272 316.0434733008605
C 28.16331871951034 39.92053109235593 314.54262620429574
C 30.438988219910428 41.19000747432869 311.7708767876657
C 31.54400993071412 37.74173426672711 310.6044681443889
C 28.087080090736585 36.226917010280495 311.1486949424648
C 26.464728766028937 38.82896321769954 308.8861133975279
C 29.188476697192126 38.40611485733969 306.27157434515453
C 28.905969987915135 34.60971825967307 306.3605691938614
C 25.105018111365542 34.73281316628025 306.17674375958165
C 25.440275153924734 36.82477498037813 303.02192450565803
C 28.21348892752551 34.6436923787683 301.5722193637221
C 26.087205787144203 31.529947656712626 302.07609227311195
C 23.163648276870564 33.15348033526471 300.26600243493306
C 25.43034546342665 34.5477117828253 297.54953856991864
C 27.265386923501804 31.285054605683655 296.86814644517347
C 23.922302122982995 29.50627624932814 296.43732906747795
C 22.72172287180505 32.179762368325704 294.0053798630557
C 26.063781960509832 32.06280110857116 292.1653800520184
C 25.87261998951083 28.28099725989669 291.7840340233402
C 22.20376795794446 28.461562303948117 290.75762720999126
C 22.950005296692705 31.09906651139464 288.1213239344244
C 25.862192453987028 28.966086836738217 286.9112707570232
C 23.442669142365876 26.129196287714855 286.11642522796336
C 20.851206139975254 28.35975103174163 284.42235652149265
C 22.803130326662103 28.52080880616486 281.15082863989744
C 24.422671094308864 25.08791330845203 281.24145181758263
C 25.17228943669659 22.234724582187955 283.54850695904605
C 28.59120471722318 20.711604035264987 282.96722853649806
C 27.807413811836327 16.985059890640816 283.18613104877534
C 28.93587360285593 14.436331237506838 280.6126209483412
C 27.4943408335628 10.933578507459695 280.32251388629913
C 29.42012002094378 8.055151400117738 278.76603116316045
C 27.684954924703373 4.741401352904214 278.028683627285
C 29.862698869701035 1.9913524074668991 276.57867590013245
C 29.3337960871394 -1.5655863990357148 275.4311588192121
C 32.46500733766146 -3.7226831804660487 275.4813774149622
C 33.2351475122471 -7.4343729357346495 275.85376343029463
C 37.04076508920006 -7.539235753338957 275.64601123102983
C 37.50219464500801 -4.046426747314615 277.09997558612406
C 38.74115365434118 -2.0981821660830517 274.06982955959444
C 35.73897205823968 0.22428681968200975 274.10198303422584
C 35.89655595254118 0.3903665591895744 277.91198249387224
C 39.52151609181659 1.5266109335656863 277.7188938092809
C 38.52000955098638 4.0090148557614675 275.01069948377085
C 35.7335782380636 5.439087277224094 277.1708787650105
C 37.95595707205844 5.637997744049242 280.2619233110587
C 40.53708091895951 7.552741998803723 278.2169420411898
C 37.901822170435786 10.013946743947011 276.9852081925813
C 36.607589607581076 10.219493250578383 280.5600553287523
C 39.831467734071275 11.644867872066916 282.0045543159025
C 40.338807868814975 14.227784667642439 279.2398784033522
C 36.85233126004256 15.613465690845526 279.89028489741565
C 37.367875730708064 15.377258655961283 283.66019274468255
C 40.42629184149056 17.621545871190992 283.35982580816244
C 38.581320590478 20.028699903634124 281.04781944102456
C 35.897309081795335 20.838956168811364 283.6292384884009
C 33.12212472468326 18.296644891431516 283.04159928149767
C 31.442968733137004 16.317767449012273 285.81021966604595
C 31.945472489315637 12.99205320184261 284.02685975789325
C 29.641293825757607 10.015884658795294 284.6762462394696
C 30.802060047296045 6.780592108209684 283.0238680772123
C 28.47004589158375 3.771343856657647 282.9780085645738
C 28.422683270522487 0.33987875532559625 281.3692173656458
C 25.488227196714877 -0.16831431188513796 279.0002356741592
C 24.491668247640803 -3.3590522110156478 280.8406881944744
C 23.667222466700263 -1.358660626505601 283.99646985164526
C 21.456575814076825 1.458197879419324 282.64430945401864
C 17.770858621260576 1.9022814745695502 281.8734645715737
C 16.98019948391047 3.765279976261721 278.66210718927584
C 14.037635194710079 5.780610726623957 279.9951554521128
C 15.188333716090641 9.327867928364721 280.6937072382014
C 18.822890166532034 8.211728522711388 280.7097726127001
C 20.24430872829583 11.382106091020766 279.14794201555395
C 18.351067023096498 13.761827192288267 281.4431313944207
C 20.53391703464688 16.073987052141753 283.5067423062744
C 23.472729962968835 15.73766647663623 281.1023667259984
C 24.251758138348656 18.202840294583293 278.32290571674974
C 26.927759031441983 15.985069671022018 276.7696390721585
C 26.359585774685005 12.284600594586543 276.07694368352884
C 28.936639446258248 9.965150626992946 274.5103578543988
C 27.763113928910172 6.541088615781356 273.37561278727907
C 30.433869858862483 3.9369888005094076 272.65180378797345
C 29.867246035378066 0.48822781658931813 271.20787861201813
C 31.921619570216652 -2.2055905587448774 269.4941407839519
C 30.781422996276763 -4.05907011527912 266.3746988934184
C 30.215933932507568 -7.829381314150534 266.3512353972657
C 28.956402603374 -8.669717352586616 262.8770309278044
C 29.80343107431115 -12.370510538687473 262.5737250083734
C 28.328747882009004 -12.450112167432 259.07515989499575
C 26.00355032174465 -9.43935758518629 259.465701815995
C 26.29439471413171 -6.221217205032384 261.4969857107129
C 25.575115644430714 -6.359478407931099 265.2207386813171
C 26.055210586924556 -4.099498110536622 268.2195027573318
C 27.82802181369815 -5.315518336697359 271.3291983673622
C 25.20164893087983 -7.288113417320102 273.1899092571944
C 25.052496867266246 -5.123041287394427 276.31247013858734
C 24.217138237323095 -2.0903736769728285 274.1558943091723
C 21.287829303662633 -3.538869344986623 272.19176951852205
C 18.61730697703411 -2.9534560603151134 274.90299384057397
C 19.616197291405296 0.7160931286006268 274.98887250286896
C 19.750474189396677 0.9295307704742855 271.2025931965152
C 16.277913681782408 -0.5791918438929511 270.84637420859474
C 14.775942350919948 1.9821277365243808 273.2525804259915
C 17.000760602871253 4.92098710232457 272.3408316550206
C 14.024748628022948 7.212834170225943 271.6694476879184
C 13.231072905576577 7.110528583542966 275.4130362490254
C 16.597933724476974 8.547668133419446 276.47649414854715
C 15.86947924515528 12.21830604044898 275.77973345535025
C 18.292484248725568 12.578933591777098 272.853643124332
C 16.331607680416926 15.189353312227524 270.8825594983343
C 18.069026970407556 18.547129957248412 271.0867390596947
C 20.879100383333878 17.14312179135047 273.21800987666705
C 24.5791834256638 17.165951305377153 272.33179010811136
C 25.891775733043985 13.662540423461449 271.5891304369838
C 28.794429572381215 11.917271248311415 269.88799411131447
C 29.699402843793333 8.298130241130883 269.25618247120696
C 32.818511834667824 6.160616895096953 269.46366226021587
C 33.54992450946203 2.4817295135418465 269.0304741316535
C 36.20078867855936 -0.1829168363656509 268.52041516652525
C 36.2661878513281 -2.329660496687031 265.4015428623872
C 38.587177102069695 -3.879457267556844 262.83826021238633
C 38.897478877788124 -2.9667001462619558 259.17156912039576
C 39.13905216127318 -6.565993816051766 257.9165838967336
C 35.368752629784275 -6.835504368569487 258.4115515868307
C 33.02242113685668 -5.57193110873002 255.7362415040636
C 31.442265350044025 -2.85449831559935 257.89752061301465
C 34.22848398825402 -1.2488738082917423 259.9156644203269
C 32.662508472756805 0.02708541362721146 263.1477674106353
C 29.18238510820661 -0.45909938978588244 261.71887032131787
C 27.897163831135 -0.06633056568975532 265.277982358341
C 28.782238574915123 3.631068531751018 265.5176945568189
C 27.19570008533713 4.1461853949821315 262.0928526353816
C 23.948304632644252 2.593151181674198 263.3169188974182
C 23.9790746974396 4.5898743532341 266.55892501329595
C 24.71807597850044 7.898706379083646 264.8220047543349
C 21.991172574547576 7.356490112814361 262.21277994236686
C 19.43115015954797 6.695615063758694 264.9428490832955
C 20.67903998189711 9.70196546191268 266.9111701114648
C 20.19587900040927 11.822737255983068 263.7864710824376
C 16.70013158924641 10.412817041954531 263.30303157405217
C 15.925798809899616 11.355346748369378 266.9217355294116
C 16.923647534444367 14.995394802435257 266.4780975012559
C 20.027421444051686 14.82610604261451 268.64373804933274
C 22.653798091839693 17.52180055908879 268.07861366624866
C 25.66114438926036 15.470140315590443 266.97269019302024
C 28.664250188237055 17.598453375115994 267.88836969963336
C 31.156105209533937 15.883880529581694 265.5683895466901
C 31.864697563062986 12.731906716303792 263.60152671417694
C 32.245602449896694 9.4490549970853 265.4050896751551
C 35.50545578250204 7.99721539366134 266.6730166290747
C 36.26261894324326 4.70776211770535 264.89373515639505
C 39.207701243397366 2.810170182572691 266.3824043593268
C 40.89179847705508 0.15187820393858498 264.2485486018409
C 42.662257424945885 -2.66971157418858 266.03613424188967
C 44.07756266957701 -2.077108164279214 269.49499242116326
C 42.9249075881076 1.2350439945197473 271.0234180256373
C 46.0882677856574 1.5307981658951362 273.1139225954861
C 48.07337104488046 1.7983477166495454 269.8552986510703
C 45.80760701706553 4.671153990526978 268.69687249380036
C 45.68177718444866 6.751810508491558 271.8897748793513
C 46.612552905741985 10.03434326731097 270.1763363467071
C 43.371095771051884 9.890288781835288 268.18339309244294
C 41.19427099069247 9.050755543234517 271.198696288588
C 42.6174628752377 12.00953969473312 273.1159337963996
C 42.4151726014427 14.197100353705027 270.0152078065321
C 38.769877857921074 13.255134090129085 269.4892865516656
C 37.94319696522092 13.901924567524356 273.14987657040643
C 39.54316848251797 17.33093106505813 272.76575306333604
C 37.25267303325117 18.180238346235882 269.85226068016124
C 34.157936843954374 16.882794917107038 271.6644078859894
C 35.205760633371234 18.945033945773503 274.6967961990791
C 34.09784018400819 22.150038020760896 272.97732386880426
C 30.44816656730572 21.07487380561872 272.8963946550885
C 29.826471371922512 23.339516452133537 275.90944975170777
C 31.669367012340114 26.69647023700844 275.81824618458216
C 34.72118862129623 27.114332763678114 278.0469185025163
C 33.166654307510385 30.058364900854016 279.8830299149517
C 30.13056231107623 28.027271856361235 280.955090447566
C 32.23480061420214 25.14551946155433 282.26416277414063
C 34.71105359685208 27.519773668870904 283.9055793011928
C 31.919931820478684 29.451440290919454 285.62066928565775
C 30.55579071796581 26.154437537500094 286.9732195400514
C 33.82552143433736 24.859108153404527 288.4066733621838
C 34.51134464340651 28.295053437317584 289.9011424900676
C 31.065811877461186 28.189584700870252 291.49766010769565
C 31.56233394500917 24.5683019998449 292.59179242141676
C 35.00639175708053 25.336151887325638 294.03004763875083
C 33.76394826823756 28.295763900952817 296.0775502756546
C 30.936045871775185 26.358752395225427 297.723754664582
C 33.428022854847974 23.685575303914444 298.76787712384765
C 35.75207852287612 26.264093611567024 300.3437764453499
C 32.729746577854044 27.688579183419304 302.1598916930866
C 31.361869485909388 24.377674506222274 303.46318504970856
C 34.80639645820026 23.36724918431071 304.7237861790827
C 35.136558448786445 26.737821571141815 306.4514714245603
C 31.76594032077826 26.32441221767625 308.1782883098364
C 32.600466572278755 22.774744073417438 309.26921152649896
C 35.92493179091251 23.688928812260468 310.8713005629612
C 35.471442916632 27.2124628184302 312.22209690417367
C 31.719710811971446 26.974324214494253 312.7879537773407
C 31.86476481547649 24.990049478970306 316.0389376388609
C 34.3924198583899 27.39544317588767 317.5669327567705
C 32.11415949033921 30.302606976930974 316.64664848207957
C 29.225722775751557 28.533532529107053 318.37620977966145
C 31.417688038882705 28.25666860021634 321.47648452696507
C 32.08376020734617 32.000037209591 321.3598509769255
C 28.33910294571526 32.58847031382215 321.0233649635833
C 27.80176868414661 30.528615285965127 324.17746542603976
C 30.373945607980097 32.74930992085177 325.9009588225481
C 28.924466303413546 36.18586166308931 325.1397038713049
C 25.190446079480246 35.74150398073489 325.7281976972404
C 25.210747329416964 33.345664457319124 328.67381335644103
C 27.835330420178114 31.517795207330412 330.70230412833615
C 29.89848506048718 28.51807147525412 329.6178526745113
C 29.459371666820285 24.8865551502349 330.6228775666703
C 32.0636189184588 22.453363015822127 331.88702692243345
C 31.326083976770153 20.438265150662364 328.74129617315725
C 31.725440469902043 23.31923602556161 326.28246897758436
C 35.13211301929065 24.168166295554112 327.7783487381257
C 36.206088500606185 20.57568641550133 327.0016738448159
C 35.0162741291885 20.26659884123309 323.39420642488716
C 36.67705477108212 23.646065330784197 322.80347179389753
C 40.0843282300509 21.94602483401358 322.943096988485
C 39.0424532695049 19.804238621599715 319.96365936990094
C 36.976389675105416 22.431229457269332 318.1417631682914
C 40.0034202750495 24.737081210572434 318.10662351705884
C 41.96670019398911 21.942096530921134 316.418464631903
C 39.2706840428335 21.86318013201132 313.7384001591886
C 40.22271069944735 25.480842967185904 313.04547120142007
C 43.75802299341189 24.35675489012364 312.16536433910267
C 42.86452085524447 21.580318623894623 309.72958701401757
C 40.817327662432774 24.08667573661652 307.73783057211944
C 44.15690313995971 25.689996738352136 306.87179358077765
C 45.53079929650793 22.243861486763745 305.94656506465157
C 42.8110787006158 21.033647104306528 303.5791107752321
C 42.48606250720769 24.34163125144992 301.71570919103004
C 45.87195128260801 23.829443805827946 299.9943655818775
C 44.601841211114206 20.30908603442893 299.28071799464095
C 41.41010192132795 21.734944234201297 297.7613398187142
C 43.37058289317152 24.135065998922418 295.55827170827735
C 45.440105038629405 21.242153040246983 294.21225069839363
C 42.47504370075522 19.046849668808864 293.27551996422307
C 40.38338388234412 21.67719633608703 291.465753688553
C 42.80099126667214 24.285409344543144 290.07060090318686
C 44.14818310395106 22.478468085037218 287.01316036052043
C 46.407230876744606 25.444220227852583 286.2076979999828
C 48.06805390703814 25.33891762089833 289.63209747378863
C 49.070379865556255 21.70764143408496 289.09153543326414
C 50.87586472867087 22.645369526025252 285.8779281688906
C 52.59847960952301 25.63606409500369 287.48785567112566
C 53.71628803967008 23.207174390330238 290.2029650803788
C 55.12553987867954 20.738971637248284 287.66693016265964
C 56.82596118606447 23.70211024040605 285.96005541954185
C 59.18583056928122 23.71737332498657 288.9518290583352
C 59.32358094333616 19.901250990050396 288.72224564790366
439
Mode 7 - Frame 22
C 49.268472445407696 36.231678551186 337.394527868884
C 50.70197313730914 34.05855818488232 338.7439511588783
C 50.53824977704587 30.805093968518218 336.8188688976847
C 50.297370245465466 33.15744167263315 333.83691256888903
C 47.54733245914002 34.06061583708459 331.3860734874965
C 49.05875742559449 32.30459027469944 328.3743517319827
C 47.93416552158104 31.46011606135082 324.8553456049679
C 47.01984276115724 27.781007660732232 324.40451884832123
C 46.73815890797133 27.30190424472067 328.1905470785605
C 43.38749872755457 25.512326135728795 328.1824418498115
C 41.61499604835313 23.479624907742128 330.8777958523852
C 43.18964528390697 20.22571733213673 329.5793709477168
C 41.02299570504408 17.577507715396276 331.2124428803153
C 43.30199549400869 14.529692856885264 330.9295071284514
C 41.929313266729274 11.013356375680855 330.50300550811653
C 45.42800949112492 9.582423003908051 329.9340954883557
C 48.98971763654987 10.764103378955712 330.56543224757496
C 51.794203817602686 11.17427567707243 329.5436179449123
C 51.35012919096815 9.371021190439022 326.2211853849746
C 48.60047132490814 11.861619764209667 325.4247170253362
C 50.836789033553586 14.747061280728575 326.48833953581226
C 53.76284979359188 13.326060498251474 324.50913073434
C 51.90609050727338 11.905301957184413 321.5027031312061
C 49.40886507555619 14.760891620760786 321.12117199455014
C 52.282209772799426 17.235645053491467 321.3942309285473
C 54.34115507276143 15.715488191745381 318.57234271267146
C 51.168792508505 15.050585212454367 316.5756000545035
C 49.83550867881975 18.601130443865916 316.8912687776395
C 53.24428349830495 20.166009549159014 316.2467970791397
C 53.77121982432516 18.02877812244597 313.1348402942774
C 50.294948686712225 18.907019119682953 311.85920280678386
C 51.02435670694496 22.600289571679458 312.35618854558777
C 54.4089136728741 22.627685246967996 310.6244856333073
C 52.93591283959344 20.64232246653895 307.7262984117266
C 50.33772630481637 23.387474299433332 307.25097680221484
C 52.89721093864075 26.203493594287053 307.31390757269196
C 54.94904298676451 24.472891592878145 304.61993955654344
C 52.03505175939585 23.44593276220955 302.4051650450081
C 50.524910143728974 26.940737716645746 302.5445303676831
C 54.01541957345524 28.325874045766284 301.9652124470016
C 54.08984556623267 26.03232711724837 298.92578411402076
C 50.88309024603725 27.59242031217506 297.5743005464032
C 52.31758110563444 31.07266875309553 298.1399319354689
C 55.4036325069561 30.015837288160768 296.1679360044939
C 53.88851571420858 28.71415453168543 292.9215818744184
C 51.694343393689444 31.81938912761867 292.63610696178284
C 54.41738308629606 34.43289299404206 293.12135802068633
C 56.782044327090496 32.23139756290828 291.09469361181146
C 54.71715682496443 32.085729130011785 287.89240850772313
C 53.477382153414624 35.14508668756282 286.0107951158872
C 50.59346284257806 33.314925235275105 284.3207927495184
C 48.89470524362439 33.234484777996556 287.75470217920815
C 49.87803250510568 36.46612587132693 289.5347811307651
C 48.164718317782906 38.3300525150879 286.6758261316913
C 44.89940137749566 36.40493688952076 287.1614414698496
C 42.348358107227625 37.98668434056886 289.54589469412855
C 41.240950112024954 34.49797282894932 290.6214490188101
C 44.66973362510492 33.74090958736353 292.1188330889203
C 44.639663295730045 36.9714268627517 294.0962194913095
C 41.82416737917417 35.106844535074806 295.88224317829173
C 43.6929803048121 31.83304840778592 296.47989050098516
C 46.907789976954774 33.60044156886727 297.4577558907322
C 44.925516832115434 35.7379144838201 299.89645362177424
C 43.39635100670731 32.61933425946433 301.46264120012665
C 46.71795936196906 30.775291709473947 301.5717258603448
C 48.5234956399189 33.66550944820584 303.2735256062649
C 45.594711219665946 33.86239303744288 305.6967536661731
C 45.8693054297083 30.122178961652303 306.3562670690141
C 49.62599280783767 30.596526985095466 306.75450096570626
C 49.32889312740553 33.55265001016323 309.14995144328856
C 47.301799432912716 31.337188518078385 311.4755803055246
C 49.294561492990304 28.13109608913361 311.05711843329345
C 52.47931838403975 30.095367980282802 311.79404666322745
C 50.981719767974965 31.53366240429636 314.9864188295572
C 49.87320508489713 28.028950461854123 315.94775170124757
C 53.328799900071424 26.46385727948423 315.66915830891884
C 54.964394270499696 29.51547483684458 317.2494114163503
C 52.65965549043167 29.62227457839493 320.2778373406345
C 52.75227051927917 25.82466111011421 320.57663644096823
C 56.55547923186095 25.617398573758972 320.6967885285807
C 56.742713919693955 28.810673075468152 322.78137329956826
C 54.55848129614309 27.37503378046155 325.57580473669
C 54.477440132354445 23.56417077447699 325.37706773423236
C 58.277756870951734 23.365435272097038 324.95307975856605
C 59.76374832086539 26.471387496735197 326.5904791529151
C 56.860447981762995 27.181231449748953 328.9871676306298
C 57.445350398439395 30.915288977783973 328.56242290620867
C 54.92478287621924 33.44085595122609 329.85935931882557
C 52.73771922900842 35.7964540718869 327.842924120858
C 52.22058612962873 39.413308828104185 328.853198166495
C 49.047339936316426 41.2703755293593 327.8578885190828
C 50.30417964944008 42.52463408714205 324.48961861410027
C 52.17235012455313 39.35794618914643 323.48442030979027
C 48.99674888309997 37.384197255656936 324.20895487762493
C 46.6258972317276 39.6066905902692 322.22125893763604
C 49.05930895067553 39.73480083037085 319.2958086171647
C 48.95801228611861 35.93759884154996 319.0404262496014
C 45.171675316418174 35.863053487546914 319.40456445424087
C 44.76074208379987 38.815878794192265 317.05083879906226
C 46.84638921459312 37.041340532712255 314.43094658283087
C 44.50637509524145 34.05077963867849 314.5531925141238
C 41.546532840140685 36.437033617948224 314.58332174500094
C 43.00579768164388 38.23712294028807 311.5574210177433
C 43.55132143148784 34.93280498751793 309.7390230029286
C 39.85067777558732 34.070757796848355 309.91655358788574
C 38.75551924004744 37.64673849546938 309.2278946426832
C 40.73111338615871 37.82343211165111 305.9827873697259
C 39.42317728954672 34.357309490366276 305.0908682180879
C 35.823809550204544 35.56235832265708 305.3838293292338
C 36.8246332832489 38.84998337149789 303.7597553631263
C 38.262694437578816 36.90942818821571 300.8203544667964
C 35.08374105409601 34.855825054026724 300.3708860806746
C 33.2191579552195 38.1723006833154 300.3978665845641
C 35.31579486143702 39.63733757172608 297.5752320584848
C 34.87813725872959 36.40968276868314 295.6155915363186
C 31.097780289003037 36.75772173157618 295.8735941031745
C 31.40362476776744 40.26943666507299 294.41804530196464
C 33.49734000413868 38.98999909418425 291.5098858324343
C 30.85570082384095 36.363383042995814 290.76056384504204
C 28.090118997198 38.96080025605255 291.04259682330894
C 29.87571414026072 41.03580848478016 288.38970900159154
C 30.32458183866334 37.94835383199775 286.2041100809966
C 26.595735430567064 37.20955565575285 286.47593468700404
C 25.25554318258488 40.74087462124288 285.9823750767816
C 27.914831286339776 42.00495068872715 283.5194653458621
C 29.040440778635578 38.905118471639206 281.6013195921375
C 30.03362795562087 40.91419730159639 278.5250774188681
C 32.3175849822863 43.472919962304026 280.19834551596875
C 33.3775124868266 41.349003663312104 283.19224269808893
C 36.95577290659252 40.916249292207624 281.9477619214854
C 37.52112035483244 44.67969377628011 281.73862737331564
C 35.81461910975393 45.46139133265588 285.07373034207376
C 37.60688521288522 42.99462901267957 287.3746084327404
C 41.27775791395831 43.5648160026825 286.5359346618467
C 44.60016466019599 42.89008910093577 288.23059946868943
C 44.93476561395342 46.45069300234465 289.62149873159007
C 41.29625287321911 46.39294894241087 290.74603351186016
C 41.69808361709735 43.054791076531906 292.5290940079598
C 44.87975382772867 44.113080702458646 294.3435252314399
C 43.20910594688114 47.24865492653666 295.71170367878386
C 40.16074052131457 45.30714856653914 296.9072418669456
C 42.26627600768977 42.70102116487815 298.70903826517946
C 44.71964956246205 45.21147521695535 300.18633390122125
C 41.796161589817906 47.20368886983765 301.58746652935935
C 40.121872508685406 44.05870073247224 302.88148691906565
C 43.22504989896744 42.93419168862344 304.7742108394146
C 43.70892531799951 46.32408578658433 306.42748988663016
C 40.09089602526658 46.12707287499495 307.5796295470878
C 40.74770530737286 42.556757187292334 308.72496583143976
C 43.98443806999165 43.49658801480601 310.5077714968222
C 42.366328701426795 46.505821821081604 312.1756853060827
C 39.88662405915504 44.29685908356885 314.0258867581815
C 42.64344798121639 42.119496598747475 315.476587182477
C 44.611087210324925 45.16513048214485 316.6064229578999
C 41.51904973200349 46.863802030746 318.12419007053234
C 41.49349593831003 44.41337376002133 321.0602397109011
C 45.27499976953511 44.59037334791233 321.26234624957493
C 45.04095432880276 48.36624009933423 321.1862623491645
C 42.002655319803154 49.40500791423062 323.2469484167416
C 39.16245411209704 46.96032547094894 323.95711031832997
C 40.216221468110156 44.98739179163865 327.04334059791637
C 39.394360973400666 43.62807504477226 330.45405368626047
C 42.39915931986634 45.410047213610724 331.9535095474984
C 42.0899279602484 48.73481220316043 330.14379338108057
C 38.28113916459342 48.973563537174925 330.3053739153656
C 37.63384868221529 47.05950725072031 333.5613364594211
C 34.88628432254302 45.356188708001376 331.55593235482
C 33.39283530683469 41.88445249621149 331.86144955666975
C 35.980026162629514 39.318716618350074 330.84161345513706
C 35.46494530823972 36.386867246032175 328.483649660006
C 35.24600422177364 32.95928317439753 330.1084998737966
C 37.320767020891815 31.505304109428774 327.239871869943
C 40.04040694291077 34.00431175666615 326.3579160944162
C 42.058054993759264 36.05075545855556 328.87020853338987
C 42.191165675324875 39.84308852125905 328.4983871444361
C 39.29437002682472 39.78545477003619 325.9858464216669
C 36.31877057201084 42.126891303727334 326.29306981388925
C 32.89635647692148 40.51440563593879 326.01343613548187
C 31.40665791667554 43.41435411206366 324.05876392638913
C 34.259877249671646 43.2527767019424 321.55533903448026
C 33.28518440836856 39.66791407908641 320.72247231850736
C 29.685001496314463 40.69069762553778 320.0532920307715
C 31.019982144044192 43.17576739907568 317.5001569569918
C 33.420915819424785 40.58113583857697 316.0828654862729
C 30.879749421493656 37.74090377505847 316.04450038024453
C 28.163836009940205 39.921469408530356 314.543431760683
C 30.439261894759312 41.190373433555244 311.7712367742237
C 31.544193193386274 37.741859228743294 310.6054492859066
C 28.08731226208057 36.22714172848818 311.1502348756044
C 26.464762072242774 38.82868732344239 308.88726113514883
C 29.18831567448789 38.4053431691026 306.2726060424855
C 28.905831509684234 34.608974148252614 306.3623318910335
C 25.104881832482395 34.73198198789261 306.1787429458127
C 25.43987640922816 36.823347928156544 303.02352063254574
C 28.213008548345364 34.64203304045029 301.5740117750899
C 26.086758170028705 31.528391389567663 302.07851870701694
C 23.163083775898404 33.15153709286626 300.2683333586269
C 25.429584314396024 34.54536779825311 297.5515283785298
C 27.264581967083842 31.282634884463405 296.8704839504527
C 23.92149329099441 29.503775253302663 296.4400405366323
C 22.720750460148395 32.176872269172485 294.00781944045497
C 26.062720844928915 32.05977567332007 292.1676825314412
C 25.871505769294092 28.27788938478521 291.786686306123
C 22.20270620241544 28.45829744377861 290.76030660271147
C 22.94877157925098 31.095687588004314 288.12389806237445
C 25.861012992250338 28.962708842260895 286.913888156853
C 23.441557168542953 26.12582329538841 286.1188668786389
C 20.85007300592255 28.356449094644113 284.42488643653934
C 22.802130834386354 28.518149340344035 281.15338013179587
C 24.421833422918983 25.0854414274327 281.24352906582914
C 25.171160109487648 22.231787053920794 283.5501297053374
C 28.590025815943413 20.7087066999419 282.96870145165275
C 27.80597025341631 16.98209198450487 283.18627414460565
C 28.93467956891975 14.434015563378964 280.6121923050075
C 27.4930310464873 10.931411240726161 280.32075498607355
C 29.418891546653203 8.053330231270527 278.7637017749735
C 27.68367320294655 4.739865820675224 278.02501299202197
C 29.861496850074538 1.9901345537526434 276.5745021874758
C 29.332598510564118 -1.5664358384389994 275.4257732175096
C 32.46368230908819 -3.7237198518106513 275.4758646969548
C 33.23355467673642 -7.435578237027829 275.8472172033431
C 37.03920047831736 -7.540571891706755 275.64011615997634
C 37.50055826136423 -4.0482286365696565 277.09526714332793
C 38.74015522819179 -2.0991045355577214 274.06593708273886
C 35.73810243936065 0.22352299050299448 274.09828038031577
C 35.89502748585636 0.3884181169737162 277.9083712196752
C 39.52007720781712 1.5245365531849833 277.71628393049406
C 38.519187347812675 4.007827277394414 275.0086748525339
C 35.732462109713694 5.437400284431778 277.1688166251172
C 37.95430983080722 5.635255508697865 280.2603202290596
C 40.53589635982622 7.550490799576656 278.2163909658945
C 37.9009914035579 10.012207626270015 276.9849434942162
C 36.60615408341408 10.216773660967563 280.5596465375608
C 39.82984383119962 11.641571274829797 282.00512807581094
C 40.337793639504866 14.225261205250405 279.2412896144462
C 36.85129524866103 15.610927650510797 279.89153187736775
C 37.366270474182 15.373705705184541 283.6615726196641
C 40.42475130434858 17.617914642375002 283.362285766236
C 38.5802383892697 20.0257155452985 281.0504162147184
C 35.89595214138992 20.835572202521774 283.631717306871
C 33.12075935875147 18.293520912304505 283.0430434383119
C 31.441093513801988 16.31400924017863 285.8108695361267
C 31.943620292748342 12.988627967972265 284.0265334330907
C 29.63920495285112 10.012314615523717 284.67456651160234
C 30.800006192402737 6.7774200145689365 283.0213941290256
C 28.46785428313072 3.7682518217821 282.9741699708445
C 28.420566493895993 0.3372681885397515 281.3642914616859
C 25.48650089634754 -0.1700653603890698 278.9946250738764
C 24.48945938002719 -3.3613397073820233 280.83391001805927
C 23.664581906077675 -1.3618899728840625 283.9901844207273
C 21.45431701984144 1.4555104928996472 282.63851941682134
C 17.768749858549313 1.900009228369914 281.8671788993449
C 16.97874613023183 3.7640588122817387 278.6562622059298
C 14.036064647362883 5.779130465439609 279.9894497810973
C 15.186840794914346 9.326125208641894 280.68930644674276
C 18.8213312719591 8.209796623026302 280.7056490222251
C 20.243180282755496 11.380602766877058 279.14506012667505
C 18.349699020075008 13.759716993203696 281.4406694804108
C 20.53231366580186 16.07119862594248 283.5053594629784
C 23.471529364373207 15.735457528083804 281.1014237398976
C 24.251107253879884 18.20137052516069 278.32281000338907
C 26.927245294402013 15.98393030003735 276.7693026615315
C 26.3590184172252 12.2837139989998 276.0753872348006
C 28.936211648320114 9.964609084528638 274.50850041876316
C 27.762707815875068 6.540955559105415 273.3724873409215
C 30.433452591288226 3.9369425864638443 272.6483214531354
C 29.866891662103885 0.4886495481470119 271.2032114394957
C 31.921419374920397 -2.2047492067022088 269.48898286901897
C 30.781670839159748 -4.05719952933146 266.36874384564345
C 30.2159766152817 -7.827479248473071 266.34397950497856
C 28.95701513188964 -8.666642387298268 262.86926296656645
C 29.8039077973989 -12.367380419343924 262.56489191524753
C 28.32983321256089 -12.445775584335905 259.066026761718
C 26.004718027765318 -9.435032218222508 259.45714187615124
C 26.29537249972485 -6.217570955448512 261.4895355983833
C 25.5754408450652 -6.356986650999369 265.21314017258715
C 26.05512880680286 -4.097967000344702 268.21271610603054
C 27.827337277569875 -5.315039301581191 271.32235210256425
C 25.200536033347444 -7.288072898537463 273.18199862872893
C 25.05096570025413 -5.1239572184025075 276.30522497449596
C 24.21613910658199 -2.09057356365076 274.1494454680823
C 21.287090267197254 -3.5383149473146362 272.184355227937
C 18.616132749253097 -2.9536140098892156 274.8953155887761
C 19.615200859565913 0.7158688737621577 274.98251406959116
C 19.75013024326403 0.9304690719380136 271.19631340272963
C 16.277544119216344 -0.5779666520694584 270.83903325588295
C 14.775299885371716 1.9826820008149872 273.24579732431914
C 17.0004297464657 4.921717748138896 272.33533969678507
C 14.024645735361219 7.213923444339535 271.6641666925608
C 13.2303450022556 7.110507038771804 275.40759934339104
C 16.597108055864656 8.547150242139494 276.47208361842166
C 15.868952721265316 12.218045813947114 275.7763393105646
C 18.29246067775553 12.57943328102067 272.85074757546545
C 16.332046772588825 15.190557716683175 270.88011714961686
C 18.06962233166868 18.548187047276734 271.0856302812478
C 20.87924207768597 17.143355868504422 273.2169591773569
C 24.579466021845878 17.1662232931505 272.331369195752
C 25.891993994570566 13.662976441842234 271.58785673652505
C 28.7948605246233 11.918106284631959 269.88666847826795
C 29.699786872275883 8.299141641929104 269.25390570033545
C 32.8187637376611 6.161422026033296 269.4612703101471
C 33.55005816599053 2.4826311957976657 269.02706813520325
C 36.20087042511205 -0.18199899152110374 268.51664085760547
C 36.26669916079358 -2.3277711902668488 265.39708885638737
C 38.58805353790363 -3.8768731400550998 262.8337018842502
C 38.899054638499926 -2.9629388615442807 259.16734482546565
C 39.14065412230385 -6.561834632853362 257.91121772201075
C 35.370249497157374 -6.831322816542324 258.4054527002075
C 33.02445128072221 -5.566763611177327 255.73012844597451
C 31.444059863088057 -2.8499508693048488 257.8920144394739
C 34.230014280321214 -1.2451204603116068 259.9111702675887
C 32.66353715957401 0.029877151671852606 263.1434150713937
C 29.183636668012745 -0.4556762668063494 261.7137457478506
C 27.897811149437185 -0.06396915865420173 265.2727715008043
C 28.783026415785283 3.6333110718068156 265.5137959100389
C 27.197103146904862 4.149575831049115 262.08882410652785
C 23.949415407927336 2.5963115430968102 263.31184224619
C 23.97971794213544 4.592016614495359 266.554488472435
C 24.71917630378516 7.901343687801721 264.8187144129191
C 21.992688634321983 7.3600772839745545 262.2088394956905
C 19.43216247066175 6.698476710185934 264.9382719656537
C 20.67986444883277 9.704157589245526 266.90775022062184
C 20.197335940994314 11.825924402293396 263.7836133730814
C 16.701600073698057 10.416327750088719 263.2991483297025
C 15.926703659151727 11.357784812354497 266.918021563986
C 16.92481968329968 14.99792646700542 266.47567974045785
C 20.028217642444456 14.827801870549559 268.6418065850353
C 22.654840014887355 17.523528127957537 268.07795617908647
C 25.662247841067597 15.472020518692666 266.9718990966877
C 28.665312773086566 17.599845161482833 267.8886608089464
C 31.157481083966264 15.88588596650318 265.56859015864916
C 31.86628331817386 12.734507478670245 263.6009109553176
C 32.24672683608465 9.451114109760411 265.4035856007702
C 35.506299252441835 7.998733410363625 266.6716463229353
C 36.26360697660104 4.709807845147245 264.89148364445487
C 39.208327420420325 2.811594728620257 266.3800920270273
C 40.892657608891305 0.1538835345730542 264.24569443529236
C 42.66263480746658 -2.6683730285726925 266.0327127117281
C 44.077359873796105 -2.076930298808555 269.4920214315235
C 42.924629151455484 1.2348174941454828 271.0212891267349
C 46.087640193193984 1.5297377909360454 273.1124565873962
C 48.07334230024518 1.7981807992502217 269.8542611493869
C 45.807954674512494 4.6714809436625835 268.69631824003613
C 45.68167559687853 6.751162017453748 271.8898559952498
C 46.612943792386346 10.034176146567066 270.1775856780052
C 43.371831383266574 9.890896108455731 268.1840051862881
C 41.1944204821769 9.050561562204884 271.19868240830704
C 42.617438327452156 12.008696018093001 273.117073325853
C 42.41582032056727 14.197196344498858 270.01695398750667
C 38.77055780882121 13.255551538180958 269.490076585179
C 37.94325166916981 13.901281289235747 273.15073927128094
C 39.54345039576535 17.330333785925294 272.7678897813816
C 37.253526432029055 18.18056915461332 269.8541920863938
C 34.15839097962546 16.88269413995848 271.66543197576965
C 35.205749693788704 18.943984346474547 274.69861497309404
C 34.098244199902524 22.14944562973942 272.97966948273455
C 30.44853979743199 21.074456718419924 272.89792086443316
C 29.82626440363756 23.33821469121381 275.91143550113094
C 31.669155274592224 26.695120661751474 275.8210452702138
C 34.72092302848027 27.112154265912103 278.0501139321927
C 33.16609008215176 30.055685147582047 279.8863675430344
C 30.129765370256997 28.024542148546704 280.95788241567277
C 32.2338317555444 25.142572558822092 282.26677523891465
C 34.710050597854895 27.516427064135932 283.90857641980443
C 31.91878614942034 29.448078450077283 285.6235334101453
C 30.5545471938033 26.150938464208117 286.97588030135677
C 33.824082794502864 24.85536551551258 288.40944626856924
C 34.51012643485758 28.291536809800647 289.90379973001893
C 31.064615022538415 28.18632086428945 291.50029530170934
C 31.561115247519897 24.565025243204122 292.5946621734799
C 35.005221403934506 25.333096781232644 294.03288335260453
C 33.76303185989884 28.293148085068978 296.0799976412852
C 30.935225328541584 26.35641026672943 297.72666839327866
C 33.42724696189423 23.683453592975987 298.771162066836
C 35.751442280686426 26.262224099451508 300.3464626584549
C 32.72927797386182 27.68705177843682 302.16253747106305
C 31.361497903494513 24.37642567092694 303.4665754699958
C 34.80609466178477 23.366255124091488 304.72715837010315
C 35.136401162310264 26.73712788348735 306.45418939974707
C 31.765937593306283 26.32406543929939 308.18136353391
C 32.60053359786445 22.774640972600196 309.272923072263
C 35.9251114824235 23.68910836764049 310.87460485805036
C 35.471737372123286 27.212895290090003 312.22475206074915
C 31.720063213074386 26.97488745826115 312.7909680103377
C 31.86539389788359 24.991285699780562 316.0423624541312
C 34.393170282110276 27.396971602739765 317.56967181585617
C 32.114852312461615 30.303960081035164 316.649008931552
C 29.22657844787135 28.53524784841485 318.37919001032463
C 31.418816336675974 28.259029969131962 321.4793402075731
C 32.084891803397284 32.002369722563365 321.36190076542965
C 28.340204503461138 32.59073121620419 321.0256210512272
C 27.80312917862698 30.53152264475185 324.18018312708097
C 30.3754512948821 32.752568941413 325.90301353983483
C 28.925904382836237 36.18896309067029 325.141198510308
C 25.191928936828766 35.74472616805636 325.73008052281045
C 25.212472465572382 33.34948810742826 328.67618134103515
C 27.83721931147901 31.522036152840673 330.70483164890015
C 29.900289614782736 28.522096535796646 329.62081658468196
C 29.461262443183646 24.890785124606772 330.6266195519382
C 32.065612399175336 22.457858422452784 331.8910499468139
C 31.327824498451633 20.442116253781304 328.7457885249308
C 31.726968773084632 23.322583073353517 326.2863293960429
C 35.13376346387102 24.171830071960084 327.7817466393344
C 36.207692122424476 20.579191153718686 327.0057264349751
C 35.01756631921306 20.269368341846835 323.398420461742
C 36.678291233753555 23.648719044386173 322.8068296168221
C 40.08557719039995 21.94872239902804 322.9465290863844
C 39.04343373120766 19.80630612631987 319.9676198941163
C 36.97718442158732 22.432885223321975 318.1453171164846
C 40.00421642001629 24.738730201424268 318.1094398476164
C 41.9673263230518 21.94338060431341 316.4216850208961
C 39.271080922732 21.863919599707796 313.74184611265736
C 40.22306309540769 25.481429919094225 313.04809776200057
C 43.75829825748644 24.357155007899447 312.16794031363554
C 42.864590361681344 21.58024178130059 309.7327672939389
C 40.81725123291986 24.08620389502359 307.74065636554957
C 44.1567616066299 25.689356758429433 306.8740692571721
C 45.53056161289517 22.243032516728704 305.94937872380524
C 42.81067097756999 21.032397016683245 303.5823149921954
C 42.48551693747496 24.340014821682885 301.7183009260561
C 45.87126352305346 23.827498893953724 299.9968045065954
C 44.60105701664145 20.307033367204873 299.28385855846136
C 41.4092382374783 21.732610873169342 297.76441739685697
C 43.36955838197863 24.13232688296919 295.5607977471731
C 45.43892158181819 21.239143689049193 294.2151413947247
C 42.473720334055486 19.04373504845936 293.27878858422935
C 40.3819846582845 21.67364053715467 291.4686216704389
C 42.79966550361924 24.28177187615842 290.0731876892198
C 44.14672900167218 22.474421981385127 287.01595552380326
C 46.40577895778768 25.440025689968365 286.2099236059201
C 48.06673100678803 25.335166275250884 289.6342042299469
C 49.068980457920574 21.70378606168307 289.09416492938146
C 50.87430467153161 22.640953300375816 285.8803014006667
C 52.597039058202306 25.631908123708293 287.489585758736
C 53.71497583979732 23.203480481815948 290.2050657858664
C 55.12405637958798 20.734811440429677 287.66939488996377
C 56.8244055372407 23.69763646262815 285.9618860405034
C 59.184451759799195 23.713414294999613 288.9535122274782
C 59.32214502319407 19.897240666883054 288.72463338917055
439
Mode 7 - Frame 23
C 49.268472445407696 36.231678551186 337.394527868884
C 50.70197313730914 34.05855818488232 338.7439511588783
C 50.53824977704587 30.805093968518218 336.8188688976847
C 50.297370245465466 33.15744167263315 333.83691256888903
C 47.54733245914002 34.06061583708459 331.3860734874965
C 49.05875742559449 32.30459027469944 328.3743517319827
C 47.93416552158104 31.46011606135082 324.8553456049679
C 47.01984276115724 27.781007660732232 324.40451884832123
C 46.73815890797133 27.30190424472067 328.1905470785605
C 43.38749872755457 25.512326135728795 328.1824418498115
C 41.61499604835313 23.479624907742128 330.8777958523852
C 43.18964528390697 20.22571733213673 329.5793709477168
C 41.02299570504408 17.577507715396276 331.2124428803153
C 43.30199549400869 14.529692856885264 330.9295071284514
C 41.929313266729274 11.013356375680855 330.50300550811653
C 45.42800949112492 9.582423003908051 329.9340954883557
C 48.98971763654987 10.764103378955712 330.56543224757496
C 51.794203817602686 11.17427567707243 329.5436179449123
C 51.35012919096815 9.371021190439022 326.2211853849746
C 48.60047132490814 11.861619764209667 325.4247170253362
C 50.836789033553586 14.747061280728575 326.48833953581226
C 53.76284979359188 13.326060498251474 324.50913073434
C 51.90609050727338 11.905301957184413 321.5027031312061
C 49.40886507555619 14.760891620760786 321.12117199455014
C 52.282209772799426 17.235645053491467 321.3942309285473
C 54.34115507276143 15.715488191745381 318.57234271267146
C 51.168792508505 15.050585212454367 316.5756000545035
C 49.83550867881975 18.601130443865916 316.8912687776395
C 53.24428349830495 20.166009549159014 316.2467970791397
C 53.77121982432516 18.02877812244597 313.1348402942774
C 50.294948686712225 18.907019119682953 311.85920280678386
C 51.02435670694496 22.600289571679458 312.35618854558777
C 54.4089136728741 22.627685246967996 310.6244856333073
C 52.93591283959344 20.64232246653895 307.7262984117266
C 50.33772630481637 23.387474299433332 307.25097680221484
C 52.89721093864075 26.203493594287053 307.31390757269196
C 54.94904298676451 24.472891592878145 304.61993955654344
C 52.03505175939585 23.44593276220955 302.4051650450081
C 50.524910143728974 26.940737716645746 302.5445303676831
C 54.01541957345524 28.325874045766284 301.9652124470016
C 54.08984556623267 26.03232711724837 298.92578411402076
C 50.88309024603725 27.59242031217506 297.5743005464032
C 52.31758110563444 31.07266875309553 298.1399319354689
C 55.4036325069561 30.015837288160768 296.1679360044939
C 53.88851571420858 28.71415453168543 292.9215818744184
C 51.694343393689444 31.81938912761867 292.63610696178284
C 54.41738308629606 34.43289299404206 293.12135802068633
C 56.782044327090496 32.23139756290828 291.09469361181146
C 54.71715682496443 32.085729130011785 287.89240850772313
C 53.477382153414624 35.14508668756282 286.0107951158872
C 50.59346284257806 33.314925235275105 284.3207927495184
C 48.89470524362439 33.234484777996556 287.75470217920815
C 49.87803250510568 36.46612587132693 289.5347811307651
C 48.164718317782906 38.3300525150879 286.6758261316913
C 44.89940137749566 36.40493688952076 287.1614414698496
C 42.348358107227625 37.98668434056886 289.54589469412855
C 41.240950112024954 34.49797282894932 290.6214490188101
C 44.66973362510492 33.74090958736353 292.1188330889203
C 44.639663295730045 36.9714268627517 294.0962194913095
C 41.82416737917417 35.106844535074806 295.88224317829173
C 43.6929803048121 31.83304840778592 296.47989050098516
C 46.907789976954774 33.60044156886727 297.4577558907322
C 44.925516832115434 35.7379144838201 299.89645362177424
C 43.39635100670731 32.61933425946433 301.46264120012665
C 46.71795936196906 30.775291709473947 301.5717258603448
C 48.5234956399189 33.66550944820584 303.2735256062649
C 45.594711219665946 33.86239303744288 305.6967536661731
C 45.8693054297083 30.122178961652303 306.3562670690141
C 49.62599280783767 30.596526985095466 306.75450096570626
C 49.32889312740553 33.55265001016323 309.14995144328856
C 47.301799432912716 31.337188518078385 311.4755803055246
C 49.294561492990304 28.13109608913361 311.05711843329345
C 52.47931838403975 30.095367980282802 311.79404666322745
C 50.981719767974965 31.53366240429636 314.9864188295572
C 49.87320508489713 28.028950461854123 315.94775170124757
C 53.328799900071424 26.46385727948423 315.66915830891884
C 54.964394270499696 29.51547483684458 317.2494114163503
C 52.65965549043167 29.62227457839493 320.2778373406345
C 52.75227051927917 25.82466111011421 320.57663644096823
C 56.55547923186095 25.617398573758972 320.6967885285807
C 56.742713919693955 28.810673075468152 322.78137329956826
C 54.55848129614309 27.37503378046155 325.57580473669
C 54.477440132354445 23.56417077447699 325.37706773423236
C 58.277756870951734 23.365435272097038 324.95307975856605
C 59.76374832086539 26.471387496735197 326.5904791529151
C 56.860447981762995 27.181231449748953 328.9871676306298
C 57.445350398439395 30.915288977783973 328.56242290620867
C 54.92478287621924 33.44085595122609 329.85935931882557
C 52.73771922900842 35.7964540718869 327.842924120858
C 52.22058612962873 39.413308828104185 328.853198166495
C 49.047339936316426 41.2703755293593 327.8578885190828
C 50.30417964944008 42.52463408714205 324.48961861410027
C 52.17235012455313 39.35794618914643 323.48442030979027
C 48.99674888309997 37.384197255656936 324.20895487762493
C 46.6258972317276 39.6066905902692 322.22125893763604
C 49.05930895067553 39.73480083037085 319.2958086171647
C 48.95801228611861 35.93759884154996 319.0404262496014
C 45.171675316418174 35.863053487546914 319.40456445424087
C 44.76074208379987 38.815878794192265 317.05083879906226
C 46.84638921459312 37.041340532712255 314.43094658283087
C 44.50637509524145 34.05077963867849 314.5531925141238
C 41.546532840140685 36.437033617948224 314.58332174500094
C 43.00579768164388 38.23712294028807 311.5574210177433
C 43.55132143148784 34.93280498751793 309.7390230029286
C 39.85067777558732 34.070757796848355 309.91655358788574
C 38.75551924004744 37.64673849546938 309.2278946426832
C 40.73111338615871 37.82343211165111 305.9827873697259
C 39.42317728954672 34.357309490366276 305.0908682180879
C 35.823809550204544 35.56235832265708 305.3838293292338
C 36.8246332832489 38.84998337149789 303.7597553631263
C 38.262694437578816 36.90942818821571 300.8203544667964
C 35.08374105409601 34.855825054026724 300.3708860806746
C 33.2191579552195 38.1723006833154 300.3978665845641
C 35.31579486143702 39.63733757172608 297.5752320584848
C 34.87813725872959 36.40968276868314 295.6155915363186
C 31.097780289003037 36.75772173157618 295.8735941031745
C 31.40362476776744 40.26943666507299 294.41804530196464
C 33.49734000413868 38.98999909418425 291.5098858324343
C 30.85570082384095 36.363383042995814 290.76056384504204
C 28.090118997198 38.96080025605255 291.04259682330894
C 29.87571414026072 41.03580848478016 288.38970900159154
C 30.32458183866334 37.94835383199775 286.2041100809966
C 26.595735430567064 37.20955565575285 286.47593468700404
C 25.25554318258488 40.74087462124288 285.9823750767816
C 27.914831286339776 42.00495068872715 283.5194653458621
C 29.040440778635578 38.905118471639206 281.6013195921375
C 30.03362795562087 40.91419730159639 278.5250774188681
C 32.3175849822863 43.472919962304026 280.19834551596875
C 33.3775124868266 41.349003663312104 283.19224269808893
C 36.95577290659252 40.916249292207624 281.9477619214854
C 37.52112035483244 44.67969377628011 281.73862737331564
C 35.81461910975393 45.46139133265588 285.07373034207376
C 37.60688521288522 42.99462901267957 287.3746084327404
C 41.27775791395831 43.5648160026825 286.5359346618467
C 44.60016466019599 42.89008910093577 288.23059946868943
C 44.93476561395342 46.45069300234465 289.62149873159007
C 41.29625287321911 46.39294894241087 290.74603351186016
C 41.69808361709735 43.054791076531906 292.5290940079598
C 44.87975382772867 44.113080702458646 294.3435252314399
C 43.20910594688114 47.24865492653666 295.71170367878386
C 40.16074052131457 45.30714856653914 296.9072418669456
C 42.26627600768977 42.70102116487815 298.70903826517946
C 44.71964956246205 45.21147521695535 300.18633390122125
C 41.796161589817906 47.20368886983765 301.58746652935935
C 40.121872508685406 44.05870073247224 302.88148691906565
C 43.22504989896744 42.93419168862344 304.7742108394146
C 43.70892531799951 46.32408578658433 306.42748988663016
C 40.09089602526658 46.12707287499495 307.5796295470878
C 40.74770530737286 42.556757187292334 308.72496583143976
C 43.98443806999165 43.49658801480601 310.5077714968222
C 42.366328701426795 46.505821821081604 312.1756853060827
C 39.88662405915504 44.29685908356885 314.0258867581815
C 42.64344798121639 42.119496598747475 315.476587182477
C 44.611087210324925 45.16513048214485 316.6064229578999
C 41.51904973200349 46.863802030746 318.12419007053234
C 41.49349593831003 44.41337376002133 321.0602397109011
C 45.27499976953511 44.59037334791233 321.26234624957493
C 45.04095432880276 48.36624009933423 321.1862623491645
C 42.002655319803154 49.40500791423062 323.2469484167416
C 39.16245411209704 46.96032547094894 323.95711031832997
C 40.216221468110156 44.98739179163865 327.04334059791637
C 39.394360973400666 43.62807504477226 330.45405368626047
C 42.39915931986634 45.410047213610724 331.9535095474984
C 42.0899279602484 48.73481220316043 330.14379338108057
C 38.28113916459342 48.973563537174925 330.3053739153656
C 37.63384868221529 47.05950725072031 333.5613364594211
C 34.88628432254302 45.356188708001376 331.55593235482
C 33.39283530683469 41.88445249621149 331.86144955666975
C 35.980026162629514 39.318716618350074 330.84161345513706
C 35.46494530823972 36.386867246032175 328.483649660006
C 35.24600422177364 32.95928317439753 330.1084998737966
C 37.320767020891815 31.505304109428774 327.239871869943
C 40.04040694291077 34.00431175666615 326.3579160944162
C 42.058054993759264 36.05075545855556 328.87020853338987
C 42.191165675324875 39.84308852125905 328.4983871444361
C 39.29437002682472 39.78545477003619 325.9858464216669
C 36.31877057201084 42.126891303727334 326.29306981388925
C 32.89635647692148 40.51440563593879 326.01343613548187
C 31.40665791667554 43.41435411206366 324.05876392638913
C 34.259877249671646 43.2527767019424 321.55533903448026
C 33.28518440836856 39.66791407908641 320.72247231850736
C 29.685001496314463 40.69069762553778 320.0532920307715
C 31.019982144044192 43.17576739907568 317.5001569569918
C 33.420915819424785 40.58113583857697 316.0828654862729
C 30.879749421493656 37.74090377505847 316.04450038024453
C 28.163836009940205 39.921469408530356 314.543431760683
C 30.439261894759312 41.190373433555244 311.7712367742237
C 31.544193193386274 37.741859228743294 310.6054492859066
C 28.08731226208057 36.22714172848818 311.1502348756044
C 26.464762072242774 38.82868732344239 308.88726113514883
C 29.18831567448789 38.4053431691026 306.2726060424855
C 28.905831509684234 34.608974148252614 306.3623318910335
C 25.104881832482395 34.73198198789261 306.1787429458127
C 25.43987640922816 36.823347928156544 303.02352063254574
C 28.213008548345364 34.64203304045029 301.5740117750899
C 26.086758170028705 31.528391389567663 302.07851870701694
C 23.163083775898404 33.15153709286626 300.2683333586269
C 25.429584314396024 34.54536779825311 297.5515283785298
C 27.264581967083842 31.282634884463405 296.8704839504527
C 23.92149329099441 29.503775253302663 296.4400405366323
C 22.720750460148395 32.176872269172485 294.00781944045497
C 26.062720844928915 32.05977567332007 292.1676825314412
C 25.871505769294092 28.27788938478521 291.786686306123
C 22.20270620241544 28.45829744377861 290.76030660271147
C 22.94877157925098 31.095687588004314 288.12389806237445
C 25.861012992250338 28.962708842260895 286.913888156853
C 23.441557168542953 26.12582329538841 286.1188668786389
C 20.85007300592255 28.356449094644113 284.42488643653934
C 22.802130834386354 28.518149340344035 281.15338013179587
C 24.421833422918983 25.0854414274327 281.24352906582914
C 25.171160109487648 22.231787053920794 283.5501297053374
C 28.590025815943413 20.7087066999419 282.96870145165275
C 27.80597025341631 16.98209198450487 283.18627414460565
C 28.93467956891975 14.434015563378964 280.6121923050075
C 27.4930310464873 10.931411240726161 280.32075498607355
C 29.418891546653203 8.053330231270527 278.7637017749735
C 27.68367320294655 4.739865820675224 278.02501299202197
C 29.861496850074538 1.9901345537526434 276.5745021874758
C 29.332598510564118 -1.5664358384389994 275.4257732175096
C 32.46368230908819 -3.7237198518106513 275.4758646969548
C 33.23355467673642 -7.435578237027829 275.8472172033431
C 37.03920047831736 -7.540571891706755 275.64011615997634
C 37.50055826136423 -4.0482286365696565 277.09526714332793
C 38.74015522819179 -2.0991045355577214 274.06593708273886
C 35.73810243936065 0.22352299050299448 274.09828038031577
C 35.89502748585636 0.38841811697371614 277.9083712196752
C 39.52007720781712 1.5245365531849833 277.71628393049406
C 38.519187347812675 4.007827277394414 275.0086748525339
C 35.732462109713694 5.437400284431778 277.1688166251172
C 37.95430983080722 5.635255508697865 280.2603202290596
C 40.53589635982622 7.550490799576656 278.2163909658945
C 37.9009914035579 10.012207626270015 276.9849434942162
C 36.60615408341408 10.216773660967563 280.5596465375608
C 39.82984383119962 11.641571274829797 282.00512807581094
C 40.337793639504866 14.225261205250405 279.2412896144462
C 36.85129524866103 15.610927650510797 279.89153187736775
C 37.366270474182 15.373705705184541 283.6615726196641
C 40.42475130434858 17.617914642375002 283.362285766236
C 38.5802383892697 20.0257155452985 281.0504162147184
C 35.89595214138992 20.835572202521774 283.631717306871
C 33.12075935875147 18.293520912304505 283.0430434383119
C 31.441093513801988 16.31400924017863 285.8108695361267
C 31.943620292748342 12.988627967972265 284.0265334330907
C 29.63920495285112 10.012314615523717 284.67456651160234
C 30.800006192402737 6.7774200145689365 283.0213941290256
C 28.46785428313072 3.7682518217821 282.9741699708445
C 28.420566493895993 0.3372681885397515 281.3642914616859
C 25.48650089634754 -0.17006536038906983 278.9946250738764
C 24.48945938002719 -3.3613397073820233 280.83391001805927
C 23.664581906077675 -1.3618899728840625 283.9901844207273
C 21.45431701984144 1.4555104928996472 282.63851941682134
C 17.768749858549313 1.900009228369914 281.8671788993449
C 16.97874613023183 3.7640588122817387 278.6562622059298
C 14.036064647362883 5.779130465439609 279.9894497810973
C 15.186840794914346 9.326125208641894 280.68930644674276
C 18.8213312719591 8.209796623026302 280.7056490222251
C 20.243180282755496 11.380602766877058 279.14506012667505
C 18.349699020075008 13.759716993203696 281.4406694804108
C 20.53231366580186 16.07119862594248 283.5053594629784
C 23.471529364373207 15.735457528083804 281.1014237398976
C 24.251107253879884 18.20137052516069 278.32281000338907
C 26.927245294402013 15.98393030003735 276.7693026615315
C 26.3590184172252 12.2837139989998 276.0753872348006
C 28.936211648320114 9.964609084528638 274.50850041876316
C 27.762707815875068 6.540955559105415 273.3724873409215
C 30.433452591288226 3.9369425864638443 272.6483214531354
C 29.866891662103885 0.4886495481470119 271.2032114394957
C 31.921419374920397 -2.2047492067022088 269.48898286901897
C 30.781670839159748 -4.05719952933146 266.36874384564345
C 30.2159766152817 -7.827479248473071 266.34397950497856
C 28.95701513188964 -8.666642387298268 262.86926296656645
C 29.8039077973989 -12.367380419343924 262.56489191524753
C 28.32983321256089 -12.445775584335905 259.066026761718
C 26.004718027765318 -9.435032218222508 259.45714187615124
C 26.29537249972485 -6.217570955448512 261.4895355983833
C 25.5754408450652 -6.356986650999369 265.21314017258715
C 26.05512880680286 -4.097967000344702 268.21271610603054
C 27.827337277569875 -5.315039301581191 271.32235210256425
C 25.200536033347444 -7.288072898537463 273.18199862872893
C 25.05096570025413 -5.1239572184025075 276.30522497449596
C 24.21613910658199 -2.09057356365076 274.1494454680823
C 21.287090267197254 -3.5383149473146362 272.184355227937
C 18.616132749253097 -2.9536140098892156 274.8953155887761
C 19.615200859565913 0.7158688737621577 274.98251406959116
C 19.75013024326403 0.9304690719380136 271.19631340272963
C 16.277544119216344 -0.5779666520694584 270.83903325588295
C 14.775299885371716 1.9826820008149872 273.24579732431914
C 17.0004297464657 4.921717748138896 272.33533969678507
C 14.024645735361219 7.213923444339535 271.6641666925608
C 13.2303450022556 7.110507038771804 275.40759934339104
C 16.597108055864656 8.547150242139494 276.47208361842166
C 15.868952721265316 12.218045813947114 275.7763393105646
C 18.29246067775553 12.57943328102067 272.85074757546545
C 16.332046772588825 15.190557716683175 270.88011714961686
C 18.06962233166868 18.548187047276734 271.0856302812478
C 20.87924207768597 17.143355868504422 273.2169591773569
C 24.579466021845878 17.1662232931505 272.331369195752
C 25.891993994570566 13.662976441842234 271.58785673652505
C 28.7948605246233 11.918106284631959 269.88666847826795
C 29.699786872275883 8.299141641929104 269.25390570033545
C 32.8187637376611 6.161422026033296 269.4612703101471
C 33.55005816599053 2.4826311957976657 269.02706813520325
C 36.20087042511205 -0.18199899152110374 268.51664085760547
C 36.26669916079358 -2.3277711902668488 265.39708885638737
C 38.58805353790363 -3.8768731400550998 262.8337018842502
C 38.899054638499926 -2.9629388615442807 259.16734482546565
C 39.14065412230385 -6.561834632853362 257.91121772201075
C 35.370249497157374 -6.831322816542324 258.4054527002075
C 33.02445128072221 -5.566763611177327 255.73012844597451
C 31.444059863088057 -2.8499508693048488 257.8920144394739
C 34.230014280321214 -1.2451204603116068 259.9111702675887
C 32.66353715957401 0.02987715167185262 263.1434150713937
C 29.183636668012745 -0.4556762668063493 261.7137457478506
C 27.897811149437185 -0.06396915865420173 265.2727715008043
C 28.783026415785283 3.6333110718068156 265.5137959100389
C 27.197103146904862 4.149575831049115 262.08882410652785
C 23.949415407927336 2.5963115430968102 263.31184224619
C 23.97971794213544 4.592016614495359 266.554488472435
C 24.71917630378516 7.901343687801721 264.8187144129191
C 21.992688634321983 7.3600772839745545 262.2088394956905
C 19.43216247066175 6.698476710185934 264.9382719656537
C 20.67986444883277 9.704157589245526 266.90775022062184
C 20.197335940994314 11.825924402293396 263.7836133730814
C 16.701600073698057 10.416327750088719 263.2991483297025
C 15.926703659151727 11.357784812354497 266.918021563986
C 16.92481968329968 14.99792646700542 266.47567974045785
C 20.028217642444456 14.827801870549559 268.6418065850353
C 22.654840014887355 17.523528127957537 268.07795617908647
C 25.662247841067597 15.472020518692666 266.9718990966877
C 28.665312773086566 17.599845161482833 267.8886608089464
C 31.157481083966264 15.88588596650318 265.56859015864916
C 31.86628331817386 12.734507478670245 263.6009109553176
C 32.24672683608465 9.451114109760411 265.4035856007702
C 35.506299252441835 7.998733410363625 266.6716463229353
C 36.26360697660104 4.709807845147245 264.89148364445487
C 39.208327420420325 2.811594728620257 266.3800920270273
C 40.892657608891305 0.15388353457305423 264.24569443529236
C 42.66263480746658 -2.6683730285726925 266.0327127117281
C 44.077359873796105 -2.076930298808555 269.4920214315235
C 42.924629151455484 1.2348174941454828 271.0212891267349
C 46.087640193193984 1.5297377909360454 273.1124565873962
C 48.07334230024518 1.7981807992502217 269.8542611493869
C 45.807954674512494 4.6714809436625835 268.69631824003613
C 45.68167559687853 6.751162017453748 271.8898559952498
C 46.612943792386346 10.034176146567066 270.1775856780052
C 43.371831383266574 9.890896108455731 268.1840051862881
C 41.1944204821769 9.050561562204884 271.19868240830704
C 42.617438327452156 12.008696018093001 273.117073325853
C 42.41582032056727 14.197196344498858 270.01695398750667
C 38.77055780882121 13.255551538180958 269.490076585179
C 37.94325166916981 13.901281289235747 273.15073927128094
C 39.54345039576535 17.330333785925294 272.7678897813816
C 37.253526432029055 18.18056915461332 269.8541920863938
C 34.15839097962546 16.88269413995848 271.66543197576965
C 35.205749693788704 18.943984346474547 274.69861497309404
C 34.098244199902524 22.14944562973942 272.97966948273455
C 30.44853979743199 21.074456718419924 272.89792086443316
C 29.82626440363756 23.33821469121381 275.91143550113094
C 31.669155274592224 26.695120661751474 275.8210452702138
C 34.72092302848027 27.112154265912103 278.0501139321927
C 33.16609008215176 30.055685147582047 279.8863675430344
C 30.129765370256997 28.024542148546704 280.95788241567277
C 32.2338317555444 25.142572558822092 282.26677523891465
C 34.710050597854895 27.516427064135932 283.90857641980443
C 31.91878614942034 29.448078450077283 285.6235334101453
C 30.5545471938033 26.150938464208117 286.97588030135677
C 33.824082794502864 24.85536551551258 288.40944626856924
C 34.51012643485758 28.291536809800647 289.90379973001893
C 31.064615022538415 28.18632086428945 291.50029530170934
C 31.561115247519897 24.565025243204122 292.5946621734799
C 35.005221403934506 25.333096781232644 294.03288335260453
C 33.76303185989884 28.293148085068978 296.0799976412852
C 30.935225328541584 26.35641026672943 297.72666839327866
C 33.42724696189423 23.683453592975987 298.771162066836
C 35.751442280686426 26.262224099451508 300.3464626584549
C 32.72927797386182 27.68705177843682 302.16253747106305
C 31.361497903494513 24.37642567092694 303.4665754699958
C 34.80609466178477 23.366255124091488 304.72715837010315
C 35.136401162310264 26.73712788348735 306.45418939974707
C 31.765937593306283 26.32406543929939 308.18136353391
C 32.60053359786445 22.774640972600196 309.272923072263
C 35.9251114824235 23.68910836764049 310.87460485805036
C 35.471737372123286 27.212895290090003 312.22475206074915
C 31.720063213074386 26.97488745826115 312.7909680103377
C 31.86539389788359 24.991285699780562 316.0423624541312
C 34.393170282110276 27.396971602739765 317.56967181585617
C 32.114852312461615 30.303960081035164 316.649008931552
C 29.22657844787135 28.53524784841485 318.37919001032463
C 31.418816336675974 28.259029969131962 321.4793402075731
C 32.084891803397284 32.002369722563365 321.36190076542965
C 28.340204503461138 32.59073121620419 321.0256210512272
C 27.80312917862698 30.53152264475185 324.18018312708097
C 30.3754512948821 32.752568941413 325.90301353983483
C 28.925904382836237 36.18896309067029 325.141198510308
C 25.191928936828766 35.74472616805636 325.73008052281045
C 25.212472465572382 33.34948810742826 328.67618134103515
C 27.83721931147901 31.522036152840673 330.70483164890015
C 29.900289614782736 28.522096535796646 329.62081658468196
C 29.461262443183646 24.890785124606772 330.6266195519382
C 32.065612399175336 22.457858422452784 331.8910499468139
C 31.327824498451633 20.442116253781304 328.7457885249308
C 31.726968773084632 23.322583073353517 326.2863293960429
C 35.13376346387102 24.171830071960084 327.7817466393344
C 36.207692122424476 20.579191153718686 327.0057264349751
C 35.01756631921306 20.269368341846835 323.398420461742
C 36.678291233753555 23.648719044386173 322.8068296168221
C 40.08557719039995 21.94872239902804 322.9465290863844
C 39.04343373120766 19.80630612631987 319.9676198941163
C 36.97718442158732 22.432885223321975 318.1453171164846
C 40.00421642001629 24.738730201424268 318.1094398476164
C 41.9673263230518 21.94338060431341 316.4216850208961
C 39.271080922732 21.863919599707796 313.74184611265736
C 40.22306309540769 25.481429919094225 313.04809776200057
C 43.75829825748644 24.357155007899447 312.16794031363554
C 42.864590361681344 21.58024178130059 309.7327672939389
C 40.81725123291986 24.08620389502359 307.74065636554957
C 44.1567616066299 25.689356758429433 306.8740692571721
C 45.53056161289517 22.243032516728704 305.94937872380524
C 42.81067097756999 21.032397016683245 303.5823149921954
C 42.48551693747496 24.340014821682885 301.7183009260561
C 45.87126352305346 23.827498893953724 299.9968045065954
C 44.60105701664145 20.307033367204873 299.28385855846136
C 41.4092382374783 21.732610873169342 297.76441739685697
C 43.36955838197863 24.13232688296919 295.5607977471731
C 45.43892158181819 21.239143689049193 294.2151413947247
C 42.473720334055486 19.04373504845936 293.27878858422935
C 40.3819846582845 21.67364053715467 291.4686216704389
C 42.79966550361924 24.28177187615842 290.0731876892198
C 44.14672900167218 22.474421981385127 287.01595552380326
C 46.40577895778768 25.440025689968365 286.2099236059201
C 48.06673100678803 25.335166275250884 289.6342042299469
C 49.068980457920574 21.70378606168307 289.09416492938146
C 50.87430467153161 22.640953300375816 285.8803014006667
C 52.597039058202306 25.631908123708293 287.489585758736
C 53.71497583979732 23.203480481815948 290.2050657858664
C 55.12405637958798 20.734811440429677 287.66939488996377
C 56.8244055372407 23.69763646262815 285.9618860405034
C 59.184451759799195 23.713414294999613 288.9535122274782
C 59.32214502319407 19.897240666883054 288.72463338917055
439
Mode 7 - Frame 24
C 49.26596062375999 36.226010976232445 337.39463591287637
C 50.69930831862715 34.05258993692409 338.74373476947704
C 50.53574768707406 30.79953935222945 336.8179568267158
C 50.29516882403537 33.15252743198407 333.8364793420628
C 47.545351213146326 34.05621844219564 331.3855895229564
C 49.05701983531872 32.300805864188845 328.3736370828307
C 47.93271602914212 31.4570516530156 324.8543689948047
C 47.01845107969615 27.77803539962127 324.4027479802186
C 46.73644747578769 27.298149817012078 328.1886438622653
C 43.38581614842305 25.508553269358686 328.1799750701367
C 41.61311691472217 23.475270821220448 330.8747454387183
C 43.18786888996252 20.2216214350167 329.5757709420419
C 41.021072881618835 17.5730713411454 331.2080967492656
C 43.299985270209646 14.52524839106291 330.92454632227043
C 41.92724544993896 11.009057730097348 330.4970177099865
C 45.42595495078619 9.57816515114983 329.9281037576574
C 48.98763214685801 10.759597266550445 330.5600813708608
C 51.79222819386147 11.169980558405346 329.53865229552025
C 51.34846276235868 9.367523880432561 326.2157578877436
C 48.59892105779935 11.85835852244835 325.4196159312586
C 50.835181176253926 14.743518513785556 326.4841290358089
C 53.761414099981124 13.322954813491782 324.50488565516434
C 51.90495022690939 11.902884996287222 321.4979522827569
C 49.40777835243851 14.758580003131385 321.1168377025083
C 52.28110798475818 17.233256802437833 321.39072445197905
C 54.340317904165516 15.713718663482208 318.568700236205
C 51.168146004901 15.049248491905978 316.5715092829788
C 49.834830875136426 18.59972618929 316.88784805648135
C 53.243659240889194 20.164741692657504 316.2440088406489
C 53.77090428335759 18.028175952380316 313.131656823891
C 50.29473240535647 18.906668645672802 311.85591608326433
C 51.0240788883486 22.599839868022222 312.353732836523
C 54.40878633138814 22.62761159358878 310.62232287367334
C 52.93604776331704 20.642832830786222 307.72361937699173
C 50.33786938100482 23.38806543745161 307.2486614617472
C 52.897332834005546 26.204083889027633 307.31233823946167
C 54.94939074642489 24.474032655551408 304.61819400627127
C 52.03557395484427 23.44746536877227 302.4030162966212
C 50.525394823663056 26.942235142837003 302.5429338153232
C 54.0159256936643 28.327496628116393 301.9641105420849
C 54.090595297304404 26.034498060581555 298.9242638813254
C 50.88391669302448 27.59480570643541 297.5728451527316
C 52.31834239490335 31.07495587969844 298.13919192864046
C 55.404522664136195 30.018466687360863 296.16719581982954
C 53.88962949978483 28.717338228202117 292.9205075285494
C 51.695464710499266 31.822606275965892 292.6354467150617
C 54.41845896354998 34.43604441621022 293.1213423734644
C 56.78326612414285 32.23492027618259 291.09444477365435
C 54.71859222931252 32.089805514593564 287.8919973107886
C 53.478938824223796 35.14949708355212 286.0108477751046
C 50.5951471012792 33.31960491629531 284.32032105457506
C 48.89616038424396 33.2385281371354 287.7541033282264
C 49.879342228432556 36.46987898281973 289.5348344011995
C 48.16621659179756 38.334289585384205 286.6760959593619
C 44.90091350332171 36.409004194015054 287.1611599467076
C 42.34969730497789 37.990281929880354 289.5457244773063
C 41.24217602672776 34.50133928594161 290.62051159376426
C 44.670881591727884 33.74414769392099 292.11805369736186
C 44.64063951689004 36.974336428302806 294.0959913744934
C 41.825034159871734 35.10942991275145 295.8814895686584
C 43.69385526155697 31.83558117044827 296.47871525705716
C 46.908585842343236 33.60282603410816 297.4571109875006
C 44.92610611125141 35.73984123242294 299.8960404531392
C 43.39686012361228 32.620980433066016 301.46156426143955
C 46.7184855956284 30.776939742714386 301.57055781200285
C 48.52386732126289 33.66684203162914 303.2730218819651
C 45.594898659946395 33.86324995579127 305.69606515536685
C 45.86946690015856 30.122914121744397 306.3549005480621
C 49.62612423656527 30.597203230094557 306.7535175655333
C 49.32881038865367 33.55284012559266 309.1495165174645
C 47.301545969865664 31.336918050142554 311.4745497330223
C 49.29436213385816 28.130917070383255 311.0556272940401
C 52.479042240338245 30.09504596418895 311.7932142326484
C 50.981163853078236 31.53267194848233 314.98574495271777
C 49.87258425452357 28.02777259734843 315.9462765899444
C 53.32819677821903 26.462727192293777 315.6676654269093
C 54.96363405741189 29.51401182584438 317.2486941587051
C 52.65862163198817 29.620164747671943 320.2769266488601
C 52.751209781123805 25.822490681301776 320.5749478430997
C 56.55440937196424 25.615195914246517 320.6953992173435
C 56.74145898361866 28.80802137092848 322.7806577078093
C 54.55697429804202 27.371798149001886 325.5745895362747
C 54.475934933308466 23.560972860520017 325.3750543531889
C 58.2762815337077 23.36231320792193 324.9513717855912
C 59.76214224290556 26.467917882184395 326.5895404108643
C 56.85863650607047 27.177287902416392 328.9861113892021
C 57.443586892404895 30.911430325797294 328.56218589918535
C 54.922913059233444 33.43675399578669 329.85938731966723
C 52.736027012905275 35.792763023689844 327.8432333707304
C 52.21881232101009 39.40940560376473 328.85419471603456
C 49.04566429712397 41.26668791384758 327.85898601129713
C 50.30277324434446 42.52163444819105 324.49107754084577
C 52.1710236784741 39.35515143383287 323.4854071506018
C 48.99536130456046 37.381260413136516 324.209262783279
C 46.62467798883534 39.604169234644274 322.22181578319976
C 49.058333942480786 39.73288652390394 319.29660366788653
C 48.957050243588554 35.93573706776231 319.040451325247
C 45.17068429628246 35.86112813874903 319.4042338512923
C 44.75996666960185 38.8144418331161 317.0510643683094
C 46.84584774646535 37.04045155382802 314.430992622216
C 44.5058342441971 34.04987146875647 314.55244111875777
C 41.5459850948873 36.43611434791339 314.58278322561813
C 43.00550059033715 38.23681163361782 311.55735891244916
C 43.55117626899383 34.93285721529771 309.73836642561224
C 39.85051703914623 34.07076838228831 309.9154367734754
C 38.75540913716871 37.646881038867804 309.2273747897211
C 40.73123954503509 37.824199912672036 305.98244702430094
C 39.42338806513546 34.35825746971988 305.0897813576265
C 35.82399269296861 35.56326046300672 305.3827004636034
C 36.824911539321825 38.85116412780361 303.75928530214776
C 38.263188544906725 36.911157666277305 300.81963969811994
C 35.084276828856964 34.8576683015436 300.36957991553976
C 33.219675509400844 38.17412314355004 300.39695461468966
C 35.31645939895457 39.63959546774549 297.5746974588331
C 34.87900535583511 36.412275216327345 295.6145167681782
C 31.09862028260001 36.76026877155646 295.872256994059
C 31.404558967985746 40.272083573424425 294.4170818164837
C 33.49850517388667 38.993014764871475 291.5089730213356
C 30.856981338432146 36.366425638076116 290.7590969439565
C 28.091381235606878 38.963780912121734 291.04108477611635
C 29.877212596853134 41.038919895610064 288.38849798525945
C 30.326348306261607 37.951616227731506 286.2026630115773
C 26.59745148066359 37.21280923082005 286.47401453035997
C 25.2573550444378 40.74420166558466 285.98061049218506
C 27.916892785467326 42.00836181815192 283.5180464544619
C 29.04278157361486 38.9086533825412 281.5998196612774
C 30.036353913254512 40.91794729124366 278.52385030093313
C 32.32000688447115 43.47663836821066 280.19758743368794
C 33.37963162382118 41.352456182291846 283.19144540464424
C 36.9580117763893 40.92004071441423 281.94742268827065
C 37.523256629876826 44.68355318199695 281.7386873636883
C 35.8162528340311 45.46500172781918 285.07356730822494
C 37.60828878318598 42.99831642968238 287.3746255461086
C 41.27921075263156 43.56884488571317 286.53650567981845
C 44.601468607711276 42.89397493386671 288.2314036602033
C 44.93573736331608 46.45437762269205 289.62287548817943
C 41.29711591741666 46.39627273856098 290.74708096239584
C 41.69899776339814 43.05790324818578 292.5296580617418
C 44.88050756821324 44.115961692077086 294.3445074866719
C 43.20971318367349 47.251248591016264 295.713115182996
C 40.161363728957696 45.30950213258922 296.90814909696866
C 42.26683210721021 42.70311807020097 298.7096484599869
C 44.720058221450834 45.21333375403095 300.18754304249455
C 41.796504165955724 47.205232135667345 301.58888839813926
C 40.12218401425735 44.06002495585522 302.88225232473957
C 43.22522253733725 42.93518852127702 304.77498831109403
C 43.708972286759824 46.32473760927693 306.4289544393838
C 40.09090056946136 46.1275067379933 307.5808257672181
C 40.74763077725769 42.556986323365464 308.72553548715075
C 43.98420040023826 43.496474906140314 310.50878669387384
C 42.3659646972089 46.505348855571484 312.17718502286704
C 39.88611603199154 44.296034851120965 314.026765803363
C 42.64281653510813 42.118382275035955 315.4772607965616
C 44.610340417240195 45.1637699306945 316.6078904357602
C 41.518173462505644 46.8621061958096 318.1257551362852
C 41.4923816434628 44.41108477539122 321.0613218543478
C 45.27386345484568 44.58804067649482 321.26377337515856
C 45.039820000091396 48.36391325151898 321.18843612317374
C 42.00135924002575 49.402254166033224 323.2490922063056
C 39.16112312126336 46.95742672960355 323.95854775524117
C 40.21463841614385 44.98387828458142 327.0444620369149
C 39.39250959559255 43.6238761042965 330.45483802628684
C 42.397185640889724 45.40554355590054 331.9548858313807
C 42.088095507192875 48.73066845492289 330.1458128320513
C 38.27929748089454 48.969386952035656 330.3071494702097
C 37.63175746519903 47.05467755359121 333.5626766032844
C 34.884348885148135 45.351766275904424 331.55672199761256
C 33.39087578878234 41.87997483050542 331.86142990888607
C 35.97814571286017 39.314445933231816 330.84128071061417
C 35.463243211389326 36.38307073054527 328.4827034659771
C 35.24416843572351 32.95516254725549 330.10686094936733
C 37.3191601256511 31.501750729706334 327.23812927790004
C 40.03885948960421 34.000932861916866 326.35682714152955
C 42.0563043983268 36.046876419120736 328.86967496189766
C 42.18945394737541 39.83928233498293 328.4986324531577
C 39.29286789172679 39.782157034513446 325.98585313377697
C 36.31725093116625 42.12353078478904 326.29332899147846
C 32.89485493401935 40.51111004781188 326.0131111406788
C 31.405318018603815 43.41145411896412 324.0589053583343
C 34.258746289688176 43.250382697219734 321.55567385543486
C 33.284127433673184 39.665688889517476 320.7220146279368
C 29.683996220552096 40.688613010423175 320.05275481004304
C 31.01919623806156 43.17420419210505 317.50023750681515
C 33.420263926541885 40.57986246262189 316.082609136377
C 30.879104800998807 37.73964054139272 316.0434733008605
C 28.16331871951034 39.92053109235593 314.54262620429574
C 30.438988219910428 41.19000747432869 311.7708767876657
C 31.54400993071412 37.74173426672711 310.6044681443889
C 28.087080090736585 36.226917010280495 311.1486949424648
C 26.464728766028937 38.82896321769954 308.8861133975279
C 29.188476697192126 38.40611485733969 306.27157434515453
C 28.905969987915135 34.60971825967307 306.3605691938614
C 25.105018111365542 34.73281316628025 306.17674375958165
C 25.440275153924734 36.82477498037813 303.02192450565803
C 28.21348892752551 34.6436923787683 301.5722193637221
C 26.087205787144203 31.529947656712626 302.07609227311195
C 23.163648276870564 33.15348033526471 300.26600243493306
C 25.43034546342665 34.5477117828253 297.54953856991864
C 27.265386923501804 31.285054605683655 296.86814644517347
C 23.922302122982995 29.50627624932814 296.43732906747795
C 22.72172287180505 32.179762368325704 294.0053798630557
C 26.063781960509832 32.06280110857116 292.1653800520184
C 25.87261998951083 28.28099725989669 291.7840340233402
C 22.20376795794446 28.461562303948117 290.75762720999126
C 22.950005296692705 31.09906651139464 288.1213239344244
C 25.862192453987028 28.966086836738217 286.9112707570232
C 23.442669142365876 26.129196287714855 286.11642522796336
C 20.851206139975254 28.35975103174163 284.42235652149265
C 22.803130326662103 28.52080880616486 281.15082863989744
C 24.422671094308864 25.08791330845203 281.24145181758263
C 25.17228943669659 22.234724582187955 283.54850695904605
C 28.59120471722318 20.711604035264987 282.96722853649806
C 27.807413811836327 16.985059890640816 283.18613104877534
C 28.93587360285593 14.436331237506838 280.6126209483412
C 27.4943408335628 10.933578507459695 280.32251388629913
C 29.42012002094378 8.055151400117738 278.76603116316045
C 27.684954924703373 4.741401352904214 278.028683627285
C 29.862698869701035 1.9913524074668991 276.57867590013245
C 29.3337960871394 -1.5655863990357148 275.4311588192121
C 32.46500733766146 -3.7226831804660487 275.4813774149622
C 33.2351475122471 -7.4343729357346495 275.85376343029463
C 37.04076508920006 -7.539235753338957 275.64601123102983
C 37.50219464500801 -4.046426747314615 277.09997558612406
C 38.74115365434118 -2.0981821660830517 274.06982955959444
C 35.73897205823968 0.22428681968200975 274.10198303422584
C 35.89655595254118 0.3903665591895744 277.91198249387224
C 39.52151609181659 1.5266109335656863 277.7188938092809
C 38.52000955098638 4.0090148557614675 275.01069948377085
C 35.7335782380636 5.439087277224094 277.1708787650105
C 37.95595707205844 5.637997744049242 280.2619233110587
C 40.53708091895951 7.552741998803723 278.2169420411898
C 37.901822170435786 10.013946743947011 276.9852081925813
C 36.607589607581076 10.219493250578383 280.5600553287523
C 39.831467734071275 11.644867872066916 282.0045543159025
C 40.338807868814975 14.227784667642439 279.2398784033522
C 36.85233126004256 15.613465690845526 279.89028489741565
C 37.367875730708064 15.377258655961283 283.66019274468255
C 40.42629184149056 17.621545871190992 283.35982580816244
C 38.581320590478 20.028699903634124 281.04781944102456
C 35.897309081795335 20.838956168811364 283.6292384884009
C 33.12212472468326 18.296644891431516 283.04159928149767
C 31.442968733137004 16.317767449012273 285.81021966604595
C 31.945472489315637 12.99205320184261 284.02685975789325
C 29.641293825757607 10.015884658795294 284.6762462394696
C 30.802060047296045 6.780592108209684 283.0238680772123
C 28.47004589158375 3.771343856657647 282.9780085645738
C 28.422683270522487 0.33987875532559625 281.3692173656458
C 25.488227196714877 -0.16831431188513796 279.0002356741592
C 24.491668247640803 -3.3590522110156478 280.8406881944744
C 23.667222466700263 -1.358660626505601 283.99646985164526
C 21.456575814076825 1.458197879419324 282.64430945401864
C 17.770858621260576 1.9022814745695502 281.8734645715737
C 16.98019948391047 3.765279976261721 278.66210718927584
C 14.037635194710079 5.780610726623957 279.9951554521128
C 15.188333716090641 9.327867928364721 280.6937072382014
C 18.822890166532034 8.211728522711388 280.7097726127001
C 20.24430872829583 11.382106091020766 279.14794201555395
C 18.351067023096498 13.761827192288267 281.4431313944207
C 20.53391703464688 16.073987052141753 283.5067423062744
C 23.472729962968835 15.73766647663623 281.1023667259984
C 24.251758138348656 18.202840294583293 278.32290571674974
C 26.927759031441983 15.985069671022018 276.7696390721585
C 26.359585774685005 12.284600594586543 276.07694368352884
C 28.936639446258248 9.965150626992946 274.5103578543988
C 27.763113928910172 6.541088615781356 273.37561278727907
C 30.433869858862483 3.9369888005094076 272.65180378797345
C 29.867246035378066 0.4882278165893182 271.20787861201813
C 31.921619570216652 -2.2055905587448774 269.4941407839519
C 30.781422996276763 -4.05907011527912 266.3746988934184
C 30.215933932507568 -7.829381314150534 266.3512353972657
C 28.956402603374 -8.669717352586616 262.8770309278044
C 29.80343107431115 -12.370510538687473 262.5737250083734
C 28.328747882009004 -12.450112167432 259.07515989499575
C 26.00355032174465 -9.43935758518629 259.465701815995
C 26.29439471413171 -6.221217205032384 261.4969857107129
C 25.575115644430714 -6.359478407931099 265.2207386813171
C 26.055210586924556 -4.099498110536622 268.2195027573318
C 27.82802181369815 -5.315518336697359 271.3291983673622
C 25.20164893087983 -7.288113417320102 273.1899092571944
C 25.052496867266246 -5.123041287394427 276.31247013858734
C 24.217138237323095 -2.0903736769728285 274.1558943091723
C 21.287829303662633 -3.538869344986623 272.19176951852205
C 18.61730697703411 -2.9534560603151134 274.90299384057397
C 19.616197291405296 0.7160931286006268 274.98887250286896
C 19.750474189396677 0.9295307704742855 271.2025931965152
C 16.277913681782408 -0.5791918438929511 270.84637420859474
C 14.775942350919948 1.9821277365243808 273.2525804259915
C 17.000760602871253 4.92098710232457 272.3408316550206
C 14.024748628022948 7.212834170225943 271.6694476879184
C 13.231072905576577 7.110528583542966 275.4130362490254
C 16.597933724476974 8.547668133419446 276.47649414854715
C 15.86947924515528 12.21830604044898 275.77973345535025
C 18.292484248725568 12.578933591777098 272.853643124332
C 16.331607680416926 15.189353312227524 270.8825594983343
C 18.069026970407556 18.547129957248412 271.0867390596947
C 20.879100383333878 17.14312179135047 273.21800987666705
C 24.5791834256638 17.165951305377153 272.33179010811136
C 25.891775733043985 13.662540423461449 271.5891304369838
C 28.794429572381215 11.917271248311415 269.88799411131447
C 29.699402843793333 8.298130241130883 269.25618247120696
C 32.818511834667824 6.160616895096953 269.46366226021587
C 33.54992450946203 2.4817295135418465 269.0304741316535
C 36.20078867855936 -0.18291683636565087 268.52041516652525
C 36.2661878513281 -2.329660496687031 265.4015428623872
C 38.587177102069695 -3.879457267556844 262.83826021238633
C 38.897478877788124 -2.9667001462619558 259.17156912039576
C 39.13905216127318 -6.565993816051766 257.9165838967336
C 35.368752629784275 -6.835504368569487 258.4115515868307
C 33.02242113685668 -5.57193110873002 255.7362415040636
C 31.442265350044025 -2.85449831559935 257.89752061301465
C 34.22848398825402 -1.2488738082917423 259.9156644203269
C 32.662508472756805 0.027085413627211466 263.1477674106353
C 29.18238510820661 -0.45909938978588244 261.71887032131787
C 27.897163831135 -0.0663305656897553 265.277982358341
C 28.782238574915123 3.631068531751018 265.5176945568189
C 27.19570008533713 4.1461853949821315 262.0928526353816
C 23.948304632644252 2.593151181674198 263.3169188974182
C 23.9790746974396 4.5898743532341 266.55892501329595
C 24.71807597850044 7.898706379083646 264.8220047543349
C 21.991172574547576 7.356490112814361 262.21277994236686
C 19.43115015954797 6.695615063758694 264.9428490832955
C 20.67903998189711 9.70196546191268 266.9111701114648
C 20.19587900040927 11.822737255983068 263.7864710824376
C 16.70013158924641 10.412817041954531 263.30303157405217
C 15.925798809899616 11.355346748369378 266.9217355294116
C 16.923647534444367 14.995394802435257 266.4780975012559
C 20.027421444051686 14.82610604261451 268.64373804933274
C 22.653798091839693 17.52180055908879 268.07861366624866
C 25.66114438926036 15.470140315590443 266.97269019302024
C 28.664250188237055 17.598453375115994 267.88836969963336
C 31.156105209533937 15.883880529581694 265.5683895466901
C 31.864697563062986 12.731906716303792 263.60152671417694
C 32.245602449896694 9.4490549970853 265.4050896751551
C 35.50545578250204 7.99721539366134 266.6730166290747
C 36.26261894324326 4.70776211770535 264.89373515639505
C 39.207701243397366 2.810170182572691 266.3824043593268
C 40.89179847705508 0.151878203938585 264.2485486018409
C 42.662257424945885 -2.66971157418858 266.03613424188967
C 44.07756266957701 -2.077108164279214 269.49499242116326
C 42.9249075881076 1.2350439945197473 271.0234180256373
C 46.0882677856574 1.5307981658951362 273.1139225954861
C 48.07337104488046 1.7983477166495454 269.8552986510703
C 45.80760701706553 4.671153990526978 268.69687249380036
C 45.68177718444866 6.751810508491558 271.8897748793513
C 46.612552905741985 10.03434326731097 270.1763363467071
C 43.371095771051884 9.890288781835288 268.18339309244294
C 41.19427099069247 9.050755543234517 271.198696288588
C 42.6174628752377 12.00953969473312 273.1159337963996
C 42.4151726014427 14.197100353705027 270.0152078065321
C 38.769877857921074 13.255134090129085 269.4892865516656
C 37.94319696522092 13.901924567524356 273.14987657040643
C 39.54316848251797 17.33093106505813 272.76575306333604
C 37.25267303325117 18.180238346235882 269.85226068016124
C 34.157936843954374 16.882794917107038 271.6644078859894
C 35.205760633371234 18.945033945773503 274.6967961990791
C 34.09784018400819 22.150038020760896 272.97732386880426
C 30.44816656730572 21.07487380561872 272.8963946550885
C 29.826471371922512 23.339516452133537 275.90944975170777
C 31.669367012340114 26.69647023700844 275.81824618458216
C 34.72118862129623 27.114332763678114 278.0469185025163
C 33.166654307510385 30.058364900854016 279.8830299149517
C 30.13056231107623 28.027271856361235 280.955090447566
C 32.23480061420214 25.14551946155433 282.26416277414063
C 34.71105359685208 27.519773668870904 283.9055793011928
C 31.919931820478684 29.451440290919454 285.62066928565775
C 30.55579071796581 26.154437537500094 286.9732195400514
C 33.82552143433736 24.859108153404527 288.4066733621838
C 34.51134464340651 28.295053437317584 289.9011424900676
C 31.065811877461186 28.189584700870252 291.49766010769565
C 31.56233394500917 24.5683019998449 292.59179242141676
C 35.00639175708053 25.336151887325638 294.03004763875083
C 33.76394826823756 28.295763900952817 296.0775502756546
C 30.936045871775185 26.358752395225427 297.723754664582
C 33.428022854847974 23.685575303914444 298.76787712384765
C 35.75207852287612 26.264093611567024 300.3437764453499
C 32.729746577854044 27.688579183419304 302.1598916930866
C 31.361869485909388 24.377674506222274 303.46318504970856
C 34.80639645820026 23.36724918431071 304.7237861790827
C 35.136558448786445 26.737821571141815 306.4514714245603
C 31.76594032077826 26.32441221767625 308.1782883098364
C 32.600466572278755 22.774744073417438 309.26921152649896
C 35.92493179091251 23.688928812260468 310.8713005629612
C 35.471442916632 27.2124628184302 312.22209690417367
C 31.719710811971446 26.974324214494253 312.7879537773407
C 31.86476481547649 24.990049478970306 316.0389376388609
C 34.3924198583899 27.39544317588767 317.5669327567705
C 32.11415949033921 30.302606976930974 316.64664848207957
C 29.225722775751557 28.533532529107053 318.37620977966145
C 31.417688038882705 28.25666860021634 321.47648452696507
C 32.08376020734617 32.000037209591 321.3598509769255
C 28.33910294571526 32.58847031382215 321.0233649635833
C 27.80176868414661 30.528615285965127 324.17746542603976
C 30.373945607980097 32.74930992085177 325.9009588225481
C 28.924466303413546 36.18586166308931 325.1397038713049
C 25.190446079480246 35.74150398073489 325.7281976972404
C 25.210747329416964 33.345664457319124 328.67381335644103
C 27.835330420178114 31.517795207330412 330.70230412833615
C 29.89848506048718 28.51807147525412 329.6178526745113
C 29.459371666820285 24.8865551502349 330.6228775666703
C 32.0636189184588 22.453363015822127 331.88702692243345
C 31.326083976770153 20.438265150662364 328.74129617315725
C 31.725440469902043 23.31923602556161 326.28246897758436
C 35.13211301929065 24.168166295554112 327.7783487381257
C 36.206088500606185 20.57568641550133 327.0016738448159
C 35.0162741291885 20.26659884123309 323.39420642488716
C 36.67705477108212 23.646065330784197 322.80347179389753
C 40.0843282300509 21.94602483401358 322.943096988485
C 39.0424532695049 19.804238621599715 319.96365936990094
C 36.976389675105416 22.431229457269332 318.1417631682914
C 40.0034202750495 24.737081210572434 318.10662351705884
C 41.96670019398911 21.942096530921134 316.418464631903
C 39.2706840428335 21.86318013201132 313.7384001591886
C 40.22271069944735 25.480842967185904 313.04547120142007
C 43.75802299341189 24.35675489012364 312.16536433910267
C 42.86452085524447 21.580318623894623 309.72958701401757
C 40.817327662432774 24.08667573661652 307.73783057211944
C 44.15690313995971 25.689996738352136 306.87179358077765
C 45.53079929650793 22.243861486763745 305.94656506465157
C 42.8110787006158 21.033647104306528 303.5791107752321
C 42.48606250720769 24.34163125144992 301.71570919103004
C 45.87195128260801 23.829443805827946 299.9943655818775
C 44.601841211114206 20.30908603442893 299.28071799464095
C 41.41010192132795 21.734944234201297 297.7613398187142
C 43.37058289317152 24.135065998922418 295.55827170827735
C 45.440105038629405 21.242153040246983 294.21225069839363
C 42.47504370075522 19.046849668808864 293.27551996422307
C 40.38338388234412 21.67719633608703 291.465753688553
C 42.80099126667214 24.285409344543144 290.07060090318686
C 44.14818310395106 22.478468085037218 287.01316036052043
C 46.407230876744606 25.444220227852583 286.2076979999828
C 48.06805390703814 25.33891762089833 289.63209747378863
C 49.070379865556255 21.70764143408496 289.09153543326414
C 50.87586472867087 22.645369526025252 285.8779281688906
C 52.59847960952301 25.63606409500369 287.48785567112566
C 53.71628803967008 23.207174390330238 290.2029650803788
C 55.12553987867954 20.738971637248284 287.66693016265964
C 56.82596118606447 23.70211024040605 285.96005541954185
C 59.18583056928122 23.71737332498657 288.9518290583352
C 59.32358094333616 19.901250990050396 288.72224564790366
439
Mode 7 - Frame 25
C 49.26104675912364 36.21492352654684 337.3948472788202
C 50.69409514662681 34.04091428208224 338.74331144792967
C 50.530852860468556 30.788672883037734 336.81617254665593
C 50.29086219385527 33.14291372658343 333.83563182250145
C 47.54147531111594 34.04761583967543 331.38464274544896
C 49.053620595800105 32.293402440066565 328.37223901812405
C 47.929880394039294 31.451056765694066 324.8524584570287
C 47.01572853993184 27.772220779472388 324.39928363944694
C 46.733099409219214 27.290805048101497 328.1849206093597
C 43.38252452694195 25.501172428983068 328.1751493208958
C 41.609440774617 23.46675294265132 330.8687779290993
C 43.18439373901309 20.213608651135083 329.5687282682149
C 41.017311271378766 17.564392483486493 331.1995944339482
C 43.29605267903769 14.516553703901552 330.9148415209432
C 41.92320018987456 11.000648310369522 330.4853038092373
C 45.421935663380324 9.569835534230366 329.91638216364385
C 48.98355231338113 10.750781980474745 330.5496134764213
C 51.78836329061661 11.161578038367194 329.52893801944236
C 51.34520273606639 9.36068210964888 326.2051401009547
C 48.59588827769344 11.851978570839858 325.4096366853923
C 50.83203573273395 14.736587815815009 326.4758920548565
C 53.75860545945961 13.316879177299125 324.49658102714324
C 51.90271950190499 11.898156707281911 321.4886582207328
C 49.405652401218084 14.754057796655358 321.10835854778503
C 52.27895256210005 17.228584678361702 321.3838647486946
C 54.338680155258515 15.710256943832103 318.5615744769722
C 51.166881253002764 15.046633471911463 316.56350652627475
C 49.83350489104321 18.596979052801498 316.8811561160942
C 53.24243800910227 20.16226139106745 316.2385542230689
C 53.77028699207686 18.026997929970406 313.12542901604996
C 50.29430929517803 18.905983015048506 311.84948628181445
C 51.02353539316166 22.59896011491549 312.3489287446635
C 54.40853721385023 22.627467505836453 310.6180918773795
C 52.9363117139501 20.643831253914158 307.7183783941953
C 50.338149280265746 23.389221877920168 307.24413197230047
C 52.897571297322784 26.205238679796082 307.30926816039374
C 54.950071066979746 24.476264910983684 304.6147791946498
C 52.036595523294245 23.450463599636656 302.3988127104627
C 50.52634300069234 26.945164550509514 302.5398104876026
C 54.016915814200644 28.33067087818189 301.96195489078383
C 54.09206199260244 26.038745066606918 298.9212898573982
C 50.88553346729989 27.59947224178054 297.56999797307566
C 52.31983170144703 31.07943017449686 298.13774425683295
C 55.406264074356166 30.02361056839875 296.1657478001225
C 53.891808393163124 28.723566478420636 292.91840579088114
C 51.69765833719366 31.828899967839966 292.6341550775693
C 54.420563697059194 34.442209528275605 293.12131176287915
C 56.78565631985352 32.24181174325727 291.0939579727616
C 54.721400303950865 32.09778012619023 287.8911928881987
C 53.48198413185804 35.158125120062564 286.0109507920789
C 50.59844200849427 33.32875975381953 284.3193982800209
C 48.89900706885551 33.246438141216515 287.7529317989244
C 49.88190443389218 36.47722117682367 289.53493861389455
C 48.1691476580629 38.34257854567315 286.6766238219391
C 44.903871667819224 36.41696104228015 287.16060920433574
C 42.352317171110556 37.99731987658729 289.54539148295373
C 41.24457427777826 34.507925069601576 290.6186777136454
C 44.67312735332384 33.75048238624119 292.11652897739594
C 44.64254929366091 36.98002839742879 294.0955451106606
C 41.8267298387911 35.11448767469425 295.88001528574904
C 43.69556693523844 31.840536001891074 296.47641613300027
C 46.9101427899837 33.607490752017 297.4558493664032
C 44.927258915197434 35.7436105214691 299.89523217332106
C 43.397856106570444 32.624200834583775 301.4594574514536
C 46.71951506401103 30.780163782234524 301.5682727646364
C 48.52459443969262 33.66944895818571 303.2720364485346
C 45.5952653484676 33.864926341044274 305.6947182249805
C 45.86978278402559 30.124352311904865 306.3522272296811
C 49.626381349954414 30.598526164941294 306.7515937444938
C 49.32864852723044 33.55321204749499 309.148665674162
C 47.301050121322966 31.33638893501754 311.4725336289813
C 49.29397212854457 28.130566856860963 311.0527101854741
C 52.47850202174007 30.094416005649755 311.79158575270094
C 50.98007631943335 31.530734324526072 314.98442665069047
C 49.87136972704284 28.025468346667974 315.9433908367804
C 53.3270168938333 26.46051640814585 315.66474490899776
C 54.962146856196114 29.511149744445003 317.2472909910156
C 52.65659909967615 29.616037295952655 320.2751450669119
C 52.74913466416043 25.81824468183088 320.5716444471923
C 56.55231641018206 25.61088686201183 320.69268131443664
C 56.7390039581964 28.8028338540618 322.7792577990851
C 54.55402616488828 27.36546829870363 325.5722122455335
C 54.47299031963756 23.55471679679128 325.3711155855148
C 58.273395338536666 23.356205528757492 324.9480304862563
C 59.759000280299574 26.461130291887716 326.5877039542949
C 56.85509272486561 27.169573159692938 328.9840450691656
C 57.440136954011855 30.90388166343162 328.56172224348296
C 54.919255145236505 33.42872936004395 329.85944209757935
C 52.73271653866285 35.78554224381356 327.84383835477166
C 52.21534222772114 39.401769744719196 328.8561442611167
C 49.04238625221238 41.25947384931717 327.86113303004964
C 50.30002190080457 42.51576626890508 324.49393163223726
C 52.168428758374695 39.34968406742369 323.48733770254603
C 48.99264679132195 37.37551508220636 324.20986513763245
C 46.62229278981577 39.59923671873403 322.222905137504
C 49.05642653862802 39.729141575348585 319.2981590217986
C 48.95516820440341 35.932094888635305 319.0405003806121
C 45.1687455683464 35.85736158813457 319.4035870943303
C 44.75844973052712 38.811630713058115 317.05150564834526
C 46.844788474965256 37.0387124487026 314.43108268884424
C 44.504776179894336 34.04809482029591 314.55097116760874
C 41.54491354347647 36.43431598435539 314.5817297227336
C 43.00491939203939 38.23620262587263 311.55723741616015
C 43.55089228830335 34.93295938825266 309.7370819665589
C 39.85020259121782 34.07078909053368 309.91325195480357
C 38.75519374343539 37.647159895834136 309.22635780386594
C 40.73148634903956 37.82570195812496 305.9817812081792
C 39.4238004044083 34.36011199718043 305.08765513772124
C 35.82435097427915 35.565025315843776 305.3804920691876
C 36.825455890342056 38.85347403569857 303.758365724111
C 38.264155164701336 36.91454103591025 300.8182413995881
C 35.08532496245088 34.861274237815984 300.3670246709542
C 33.220687998162305 38.17768841376193 300.39517053240047
C 35.31775943051135 39.644012578893665 297.57365162409974
C 34.88070361003706 36.417346809213754 295.6124142044224
C 31.100263558043032 36.76525153364783 295.8696412139125
C 31.40638653939003 40.27726170753106 294.4151969544606
C 33.50078458987357 38.99891430696611 291.5071872933633
C 30.859486402982313 36.37237785223173 290.75622725240186
C 28.093850546549266 38.96961195528711 291.03812676544914
C 29.880144020294484 41.045006733686385 288.3861288798201
C 30.32980403834765 37.95799843685074 286.199832116616
C 26.600808581232908 37.21917418411162 286.47025813713105
C 25.260899581086395 40.75071034646556 285.97715844380645
C 27.920925686318387 42.01503499427719 283.5152706840243
C 29.047360859600452 38.9155687117764 281.5968853537333
C 30.04168669109261 40.92528337799615 278.5214496960054
C 32.324744840093786 43.48391266784291 280.19610440095954
C 33.38377728135493 41.35921032860489 283.1898856633043
C 36.962391666629436 40.92745785548375 281.9467590479605
C 37.52743581449516 44.691103318881304 281.73880472256656
C 35.81944888099503 45.47206472655255 285.0732483658889
C 37.61103458103028 43.00553010587081 287.3746590249087
C 41.28205293395654 43.57672657025335 286.53762275953653
C 44.60401951397838 42.9015767701832 288.2329768962028
C 44.93763839193127 46.461585827796895 289.6255688304888
C 41.29880428663899 46.402775065020094 290.74913008485254
C 41.70078610341981 43.06399157465842 292.53076151744887
C 44.88198210710637 44.12159775824312 294.3464290678688
C 43.21090111809654 47.25632256439193 295.71587650191293
C 40.16258290707946 45.31410640255935 296.90992390670937
C 42.2679200020336 42.70722023602193 298.7108421811608
C 44.72085767906964 45.216969601193696 300.1899084797654
C 41.79717434601029 47.20825121920457 301.59166999321053
C 40.12279341111298 44.06261552770501 302.8837496841866
C 43.2255602689517 42.93713862021388 304.77650927520983
C 43.709064171520254 46.32601276688267 306.431819536908
C 40.0909094592478 46.12835550209507 307.5831659269188
C 40.747484974351025 42.557434581165815 308.72664990188457
C 43.98373544804017 43.49625363220037 310.5107727189944
C 42.365252597504124 46.50442359541356 312.18011891161586
C 39.885122180889375 44.29442240913828 314.0284854752335
C 42.64158124011655 42.116202328906226 315.4785785845631
C 44.60887946951205 45.16110829042081 316.61076125565654
C 41.51645922069183 46.858788642061036 318.1288168669074
C 41.490201753800136 44.406606845743084 321.06343884637977
C 45.271640487871416 44.58347728259415 321.2665652540898
C 45.03760091827646 48.35936125030347 321.1926886668371
C 41.998823725376475 49.39686702164861 323.25328609154263
C 39.15851931028222 46.95175593581927 323.96135980617294
C 40.2115414991785 44.97700482758505 327.0466559026465
C 39.38888775407044 43.61566173719252 330.4563724269168
C 42.39332454217853 45.39673307193306 331.9575782489354
C 42.08451068807343 48.72256206012971 330.14976347429496
C 38.27569460391181 48.96121631856917 330.31062297963115
C 37.627666427384895 47.04522924027302 333.56529832029344
C 34.88056259825978 45.34311469321434 331.5582667720185
C 33.38704239301934 41.87121519457087 331.8613914720211
C 35.9744669979998 39.306091212427994 330.8406297641007
C 35.45991340748846 36.375643625515956 328.4808524311388
C 35.24057709628273 32.947101384150486 330.10365472937076
C 37.316016564202435 31.494799270006332 327.23472025344824
C 40.03583221412608 33.99432274633259 326.35469682822276
C 42.05287971688256 36.03928787288809 328.86863113854787
C 42.186105302201675 39.83183631103509 328.49911234943266
C 39.28992927204276 39.775705690334604 325.9858662646458
C 36.31427806507403 42.11695661771561 326.2938360193526
C 32.8919174728451 40.504662904573195 326.012475354905
C 31.40269678243564 43.40578087637921 324.05918204097003
C 34.256533798099454 43.2456993172685 321.5563288640617
C 33.28205967914855 39.661335761841414 320.72111925006993
C 29.682029604402025 40.684534887877575 320.0517038477099
C 31.01765877395893 43.171146097809505 317.5003950860481
C 33.41898863162318 40.577371363351304 316.0821076403059
C 30.877843733017965 37.73716928343406 316.04146403039
C 28.16230674672463 39.91869546892643 314.54105029820084
C 30.438452831116788 41.189291550049845 311.7701725476897
C 31.543651414827977 37.74148980413448 310.6025487419457
C 28.086625895050435 36.22647739512912 311.1456823786532
C 26.464663609242628 38.82950294831092 308.88386808392755
C 29.188791705135746 38.407624507334944 306.2695560406166
C 28.906240892213756 34.61117396127428 306.3571208378421
C 25.105284713090704 34.73443919657156 306.1728327611511
C 25.441055216261255 36.827566715791455 303.0188020102867
C 28.21442869101051 34.646938534357425 301.56871287796434
C 26.088081458359348 31.53299217466052 302.07134545210704
C 23.164752607413625 33.15728189104407 300.2614424600958
C 25.431834495622862 34.55229730859621 297.5456459168808
C 27.26696165587966 31.289788294695718 296.86357359481224
C 23.92388443712106 29.511168935851664 296.43202463338235
C 22.72362519606281 32.185416255430916 294.0006073294959
C 26.065857815828988 32.068719753035204 292.1608757225721
C 25.874799733174218 28.28707718106403 291.7788453752593
C 22.205845065191014 28.467949334231193 290.75238552686983
C 22.952418812203913 31.105676683009257 288.1162881802678
C 25.86449982932283 28.97269519112479 286.906150350296
C 23.44484449141982 26.13579485641766 286.1116486384631
C 20.853422884685184 28.366210595441053 284.4174072608266
C 22.805085628605053 28.526011506388613 281.14583716853997
C 24.424309826829298 25.092749037428753 281.2373881068057
C 25.17449873409633 22.240471254641175 283.5453323882631
C 28.5935109961398 20.71727207845458 282.9643470796487
C 27.81023783824644 16.99086599117298 283.18585111108905
C 28.93820948571567 14.440861379691363 280.6134595012381
C 27.496903163733542 10.937818320970809 280.32595481437033
C 29.42252327930357 8.058714143994605 278.77058813409286
C 27.68746235082586 4.744405307235486 278.03586447343633
C 29.865050374928426 1.9937348888441873 276.58684091417496
C 29.33613890044702 -1.5639246448071318 275.4416946459798
C 32.46759948470115 -3.7206551452891037 275.4921619187471
C 33.23826356871338 -7.432015010598479 275.86656978266757
C 37.04382592996204 -7.536621872261538 275.65754373024413
C 37.5053958944781 -4.0429017200114 277.10918669017263
C 38.74310687062627 -2.0963777391057747 274.07744439338893
C 35.74067328947983 0.2257810950396583 274.10922651830276
C 35.89954608458229 0.39417828734679483 277.9190472122552
C 39.524330973680236 1.5306690339504743 277.72399950262815
C 38.52161802310974 4.011338109622302 275.0146602601445
C 35.73576171459874 5.442387533128613 277.1749129193886
C 37.95917956221386 5.643362365908436 280.26505941268124
C 40.53939826630782 7.557146009049181 278.21802010714555
C 37.90344739569253 10.017348971513302 276.9857260207228
C 36.61039791662057 10.224813570683994 280.56085504499856
C 39.834644567466746 11.651316989423062 282.00343187214685
C 40.340792000747534 14.23272130501106 279.2371176578606
C 36.85435800413691 15.618430846973485 279.887845436519
C 37.37101608634713 15.384209276516874 283.6574933018775
C 40.42930558690909 17.62864962669915 283.3550134039873
C 38.583437695508835 20.034538189525563 281.042739385108
C 35.89996365779913 20.845576205825623 283.62438918772256
C 33.12479578350387 18.30275631680717 283.0387740844518
C 31.446637215723797 16.325119614919636 285.8089483283256
C 31.949095932572412 12.998753970427074 284.02749814553846
C 29.645380277801046 10.022868717316511 284.6795322830362
C 30.806077993768337 6.786797659777687 283.0287078501786
C 28.47433332468392 3.7773927896474495 282.98551798706694
C 28.42682431047947 0.34498579460185513 281.37885388792546
C 25.4916043498398 -0.16488874409935905 279.01121166456994
C 24.49598944475399 -3.354577192850733 280.85394830846997
C 23.67238818277541 -1.3523430716815397 284.00876600998913
C 21.460994682400607 1.4634552007722565 282.65563647600396
C 17.77498398363365 1.9067266589064518 281.885761201993
C 16.98304267273803 3.767668933495965 278.67354170214827
C 14.040707648949075 5.783506554475815 280.0063174289416
C 15.191254310623997 9.331277202595992 280.70231648541454
C 18.82593982450466 8.21550788879504 280.7178395729591
C 20.246516300891503 11.385047036829357 279.15357984093896
C 18.353743240843027 13.765955364631553 281.4479476249846
C 20.53705369742458 16.07944203693504 283.5094475559787
C 23.475078688240345 15.741987832089631 281.1042114851826
C 24.25303146051163 18.20571559745199 278.32309296033793
C 26.928764052748086 15.987298617012014 276.7702971906538
C 26.360695693361137 12.286335037278528 276.0799885567072
C 28.937476345311815 9.966210043917261 274.5139915468199
C 27.763908405892003 6.541348913918024 273.3817270829908
C 30.434686157415726 3.937079208824983 272.6586162629071
C 29.867939294113878 0.48740278516669444 271.2170089792281
C 31.922011211314075 -2.207236491708695 269.5042311881847
C 30.78093814243406 -4.06272953359246 266.38634872480503
C 30.215850432401353 -7.8331023161082305 266.36543006452945
C 28.955204316778087 -8.675732892424893 262.89222735309943
C 29.80249846322215 -12.376633976139276 262.5910051460697
C 28.326624655058342 -12.458595804133651 259.0930269998014
C 26.001265944059696 -9.447819279822125 259.4824475852362
C 26.292481876867782 -6.228350345596668 261.51156032971375
C 25.574479455989955 -6.364353020059864 265.2356036074838
C 26.055370572984206 -4.102493414057993 268.23277945070646
C 27.829360968441133 -5.316455470796453 271.34259168233444
C 25.20382608698216 -7.2881926840201485 273.20538478170204
C 25.055492281944698 -5.121249455958442 276.3266438183331
C 24.219092831997557 -2.089982639623954 274.16851014605174
C 21.289275077153565 -3.5399539104920352 272.2062740596159
C 18.619604113207536 -2.9531470643212234 274.9180147677217
C 19.61814660623127 0.7165318372650299 275.00131147537917
C 19.75114704956553 0.9276951758232639 271.21487832696397
C 16.278636655257042 -0.5815886807781272 270.860735279159
C 14.777199203189062 1.981043431952322 273.2658501752441
C 17.001407855669818 4.919557743424033 272.3515755465634
C 14.024949916443356 7.210703228504438 271.67977887379556
C 13.232496899350535 7.110570731475408 275.42367244142883
C 16.59954897602126 8.548681281645296 276.4851224474676
C 15.870509281314671 12.218815120305875 275.7863734045075
C 18.292530360501146 12.577956052107671 272.8593076726853
C 16.33074868650805 15.186997141570307 270.88733745341045
C 18.067862268029288 18.545061977098484 271.0889081576498
C 20.878823187352804 17.142663867337422 273.22006535468574
C 24.578630584108843 17.165419217001286 272.33261353694024
C 25.891348749066875 13.661687442795367 271.59162217107934
C 28.793586502577963 11.915637670764488 269.8905874408822
C 29.6986515707157 8.296151642602565 269.26063650713775
C 32.818019038050856 6.159041821309631 269.46834162065755
C 33.549663037836694 2.479965556871539 269.0371372661652
C 36.200628758170595 -0.18471241183073026 268.52779882895385
C 36.265187579074315 -2.333356537770936 265.4102562129519
C 38.58546253485336 -3.8845125837884877 262.8471776478458
C 38.894396224668974 -2.9740583295064975 259.1798330882972
C 39.135918252595935 -6.57413040618483 257.9270817185942
C 35.36582431532505 -6.843684718734916 258.42348280946584
C 33.01844957615424 -5.582040259395947 255.7482004502696
C 31.438754752787016 -2.863394462964216 257.9082923138909
C 34.22549028522612 -1.2562164649347196 259.9244563097633
C 32.660496057672496 0.02162394988672539 263.1562818710088
C 29.179936687763515 -0.4657960288447765 261.72889549980147
C 27.89589748544661 -0.07095017494212061 265.2881763339355
C 28.780697325601317 3.6266814614007616 265.5253214608069
C 27.19295528272481 4.1395527011734075 262.10073362704713
C 23.94613162828805 2.586968581788238 263.32685032585556
C 23.977816320927758 4.585683457808408 266.56760419689334
C 24.715923417425888 7.893547024693686 264.8284416334577
C 21.988206714085766 7.349472547086831 262.22048861929164
C 19.42916978017368 6.690016838584788 264.9518032765747
C 20.67742708118711 9.697677013730427 266.91786042751033
C 20.193028794533927 11.816502256949798 263.79206160553827
C 16.697258800160224 10.405949060477868 263.31062834633946
C 15.924028657649664 11.350577175494415 266.92900114215206
C 16.921354465263306 14.990442119184918 266.48282735510344
C 20.025863844956493 14.822788502562661 268.64751656366974
C 22.651759782781255 17.518420924400655 268.07989990522907
C 25.658985711784812 15.466462083283783 266.97423781097945
C 28.662171458594802 17.59573063012508 267.8878002038811
C 31.153413592984155 15.879957302955345 265.56799709047743
C 31.861595357948875 12.72681885736614 263.6027313202788
C 32.2434028185926 9.445026764839698 265.4080320886571
C 35.50380570630624 7.994245704870912 266.67569735239965
C 36.260686058326556 4.703760070927259 264.89813977839975
C 39.20647625629208 2.8073833499755674 266.3869279639086
C 40.89011776156645 0.14795518524101683 264.25413219416413
C 42.66151915333154 -2.672330164553887 266.0428277649264
C 44.07795939799008 -2.0774561216459717 269.5008045539392
C 42.925452292394056 1.235487096115052 271.02758278034446
C 46.08949554178207 1.5328725723393621 273.1167905400778
C 48.073427277872526 1.798674256356884 269.8573283106351
C 45.806926896470294 4.6705143736766885 268.6979567777798
C 45.681975919724636 6.753079148397023 271.88961619270833
C 46.611788216075304 10.034670204820335 270.1738922858835
C 43.36965669640615 9.889100671681994 268.1821956561909
C 41.19397854121883 9.051135027391966 271.198723442515
C 42.61751089795277 12.011190175295773 273.1137045403978
C 42.41390547162739 14.196912567375671 270.0117917610707
C 38.768547673237904 13.254317438508343 269.48774101289433
C 37.94308994814819 13.903183009753569 273.14818887282536
C 39.542616976984895 17.332099519359634 272.76157301207655
C 37.25100353331705 18.1795911873945 269.8484822794164
C 34.15704842052021 16.882992066959183 271.66240446406647
C 35.20578203442406 18.947087271845508 274.69323814020095
C 34.09704980965279 22.151196912473594 272.972735155528
C 30.44743641900065 21.075689751304317 272.8934089390712
C 29.826876262985216 23.342063080774253 275.90556503963995
C 31.669781233880286 26.699110404607662 275.8127703467925
C 34.72170819924763 27.118594548404168 278.0406672987737
C 33.167758098872014 30.063607289321087 279.87650052914915
C 30.132121362576743 28.032611970660213 280.9496285337562
C 32.2366959877452 25.151284473228593 282.2590520218393
C 34.71301575897736 27.52632061565514 283.89971605243466
C 31.92217309127258 29.45801704402709 285.61506621266636
C 30.558223418317834 26.161282757790776 286.9680143054774
C 33.82833583854224 24.866429857953374 288.4012487387278
C 34.51372781894517 28.301932998854316 289.8959441443018
C 31.06815327900346 28.19596972871165 291.4925048902918
C 31.564718077059464 24.57471230313763 292.58617833922625
C 35.00868131332411 25.342128576715332 294.02450014534617
C 33.765741033473184 28.300881209014292 296.07276250601507
C 30.937651096565677 26.36333428996336 297.71805455111416
C 33.429540730510254 23.689725996842245 298.7614508056424
C 35.753323200418784 26.267750929147688 300.33852141954236
C 32.730663305595435 27.691567238457235 302.1547157703271
C 31.36259641080456 24.380117596717966 303.4565523867697
C 34.806986861079714 23.369193859547554 304.71718917797097
C 35.13686614756505 26.73917862897157 306.44615426274464
C 31.765945656518596 26.32509061855088 308.17227226373785
C 32.60033545044708 22.774945769051474 309.2619506473308
C 35.92458026127182 23.688577548932127 310.86483638633405
C 35.47086687476735 27.211616776197356 312.2169026341059
C 31.719021411384773 26.973222343415813 312.7820570477926
C 31.863534144582157 24.987631066131247 316.03223768918167
C 34.39095180806667 27.39245312177112 317.56157434862473
C 32.112804125745676 30.299959905864867 316.64203074610333
C 29.224048828489575 28.530176858176215 318.37037956871586
C 31.41548075532391 28.25204906553781 321.4708979726946
C 32.08154647142136 31.99547412565581 321.3558409855109
C 28.33694797358286 32.58404732134118 321.01895139015136
C 27.799107155323036 30.52292763392172 324.1721488005339
C 30.371000039918798 32.742934314566355 325.89693918897956
C 28.92165299553961 36.17979435519494 325.13677991619517
C 25.187545172764878 35.735200431139674 325.72451433461237
C 25.207372453834243 33.338184268958535 328.6691808795423
C 27.83163519119007 31.509498665979006 330.69735955198524
C 29.894954819577986 28.510197268629167 329.6120543912668
C 29.455672750093594 24.87828007166888 330.6155571388467
C 32.059719081698816 22.444568673401925 331.87915669914264
C 31.32267900255662 20.430731256110423 328.73250780693934
C 31.72245065771956 23.312688212027222 326.27491685947825
C 35.12888426247779 24.16099886735186 327.7717014402961
C 36.2029513429381 20.56883011294432 326.99374578213394
C 35.01374622404409 20.261180880471954 323.38596252480926
C 36.674635885091206 23.64087388359858 322.7969029010229
C 40.08188489491323 21.940747600520154 322.9363827918335
C 39.040535196980564 19.80019397203666 319.95591141538307
C 36.97483491637649 22.4279902900858 318.1348105964948
C 40.001862780471285 24.73385529768173 318.10111394310337
C 41.96547530070827 21.93958450430549 316.4121646003689
C 39.26990762859253 21.86173351490506 313.7316588569532
C 40.222021308921114 25.479694715984166 313.04033287356015
C 43.757484495623714 24.355972141638805 312.1603249724849
C 42.86438488013553 21.5804689506926 309.7233654476681
C 40.81747718112215 24.08759879806062 307.7323024859916
C 44.15718002093366 25.691248728003956 306.8673416859671
C 45.531264275819034 22.24548319686545 305.94106071675066
C 42.81187632725384 21.036092644725375 303.57284238096236
C 42.48712980265788 24.344793465246678 301.71063899223503
C 45.87329674332436 23.83324862759476 299.989594325155
C 44.60337532699827 20.31310165746956 299.27457412470926
C 41.41179154189862 21.7395089771914 297.7553191673613
C 43.37258713950204 24.14042451831798 295.5533300305067
C 45.44242022951032 21.248040219554746 294.2065956430322
C 42.47763259667969 19.05294278565299 293.2691255785894
C 40.386121177657735 21.684152528475785 291.4601430693517
C 42.803584850570815 24.292525306489672 290.0655403860834
C 44.1510277572617 22.486383458196446 287.00769219600284
C 46.41007125883296 25.452425982187854 286.20334405776737
C 48.070641890449444 25.34625636038747 289.6279760368256
C 49.07311751999883 21.715183680614647 289.0863913626275
C 50.87891666096642 22.654008967071846 285.8732854269549
C 52.60129775315917 25.64419440170631 287.4844711090355
C 53.71885508998453 23.2144007658314 290.19885548031374
C 55.12844204083376 20.74711021032169 287.6621084284617
C 56.829004494393565 23.710862270405386 285.9564741845391
C 59.188527927654654 23.725118356352517 288.94853628261757
C 59.32639002701982 19.909096366019003 288.71757452112104
439
Mode 7 - Frame 26
C 49.25394561096259 36.198900776883946 337.39515272900945
C 50.68656146194009 34.02404150249935 338.74269969541916
C 50.523779224640016 30.772969477789854 336.8135940391056
C 50.28463857532953 33.1290207214889 333.8344070508768
C 47.53587414856623 34.03518400453396 331.38327453369436
C 49.048708270116975 32.28270356749233 328.37021863999894
C 47.925782547133444 31.442393404728836 324.8496974913085
C 47.01179412991622 27.763817927087732 324.3942772343218
C 46.72826103484073 27.280190939634437 328.17954004386183
C 43.377767722764965 25.490506192743556 328.1681755104871
C 41.6041282930003 23.454443544201517 330.8601541323338
C 43.17937171183078 20.202029177597108 329.55855072487645
C 41.01187527474157 17.551850450145032 331.1873075263411
C 43.29036959359772 14.503988794951882 330.90081687085654
C 41.917354283812195 10.988495648492355 330.46837575954123
C 45.41612729105363 9.557798197378975 329.89944299621993
C 48.97765644441937 10.738042791030558 330.53448606147396
C 51.78277802268578 11.149435347403408 329.5148996771576
C 51.3404915908836 9.350794896301684 326.18979607284024
C 48.59150553163392 11.842758743883888 325.3952154286674
C 50.827490173969004 14.726572091575424 326.46398858854815
C 53.754546623095486 13.308099124129262 324.4845798023711
C 51.89949582564707 11.891323739086861 321.4752271402422
C 49.402580136164666 14.747522643455664 321.09610511012926
C 52.27583770713808 17.221832875504546 321.3739516206439
C 54.336313403526454 15.705254326554947 318.5512768648448
C 51.1650535285372 15.042854441392839 316.5519415432608
C 49.83158867840775 18.593009097447176 316.87148542638437
C 53.24067317663339 20.158677045470146 316.23067161936206
C 53.769394929074046 18.025295540448333 313.1164290558414
C 50.29369784812202 18.904992193158364 311.8401944156112
C 51.022749974731795 22.59768876179155 312.341986231876
C 54.40817720789216 22.6272592810372 310.61197755926645
C 52.93669315558336 20.6452741000411 307.71080451943465
C 50.338553769658326 23.390893078841312 307.23758629429847
C 52.897915906601234 26.20690749669452 307.3048315126754
C 54.9510542151563 24.479490798901036 304.6098443653331
C 52.03807181730247 23.454796417726826 302.3927380034188
C 50.52771323493079 26.949397910491125 302.53529688893013
C 54.018346662045715 28.33525806600318 301.9588397054043
C 54.09418155050426 26.04488252078176 298.91699202135595
C 50.887869908069476 27.60621596822335 297.5658834428486
C 52.32198393542305 31.085896089338046 298.13565219025105
C 55.408780629633185 30.031044118990003 296.1636552307823
C 53.89495716624734 28.732567077919985 292.915368517435
C 51.70082840175988 31.837995138705516 292.6322885000621
C 54.42360529986971 34.45111888525746 293.12126752676005
C 56.789110451200536 32.25177077395224 291.09325448466814
C 54.72545832254312 32.10930443600857 287.8900303970807
C 53.48638498176074 35.17059371049673 286.01109966447405
C 50.60320356096724 33.34198963751819 284.31806475553185
C 48.903120883681595 33.25786908510516 287.7512387927543
C 49.885607140811125 36.48783156422902 289.53508921425555
C 48.17338341491832 38.354557128615255 286.67738664929533
C 44.90814658500482 36.42845968186566 287.1598133128184
C 42.35610320490411 38.00749058864675 289.544910264522
C 41.24804005009748 34.51744234958118 290.61602752781465
C 44.676372759334676 33.7596368078725 292.11432556660156
C 44.64530915963365 36.988254003765746 294.09490020368213
C 41.829180306626725 35.121796772436475 295.87788476280105
C 43.698040517503124 31.84769635220437 296.4730936115682
C 46.91239277379321 33.61423185203736 297.45402616633584
C 44.92892486088931 35.74905761494023 299.89406410802644
C 43.39929542634728 32.62885471701808 301.4564128478749
C 46.721002774408674 30.784822922036664 301.56497058578015
C 48.525645216643596 33.67321629267559 303.27061237414296
C 45.595795259181614 33.86734892712215 305.6927717423351
C 45.87023927566861 30.126430676322496 306.34836395071227
C 49.626752910916224 30.600437971034733 306.7488135827987
C 49.32841461725673 33.553749521098396 309.14743609931605
C 47.300333558245285 31.33562429757328 311.46962010682256
C 49.29340852215319 28.130060754578167 311.0484945992376
C 52.477721338390225 30.093505636876255 311.7892323957733
C 50.97850469747915 31.527934215892234 314.98252153959976
C 49.8696145831338 28.022138416624504 315.93922056301625
C 53.325311813523605 26.457321548916237 315.6605243958311
C 54.9599976646819 29.507013679337383 317.2452632384428
C 52.65367628786284 29.610072612682913 320.2725704584699
C 52.746135860957885 25.812108682252966 320.56687062749864
C 56.54929181898744 25.604659743314702 320.6887536052593
C 56.73545613981865 28.795337244247662 322.77723475612436
C 54.549765744247395 27.356320874398804 325.5687767634792
C 54.46873498508897 23.54567600329565 325.3654235742578
C 58.26922442601709 23.34737916949111 324.9432018913756
C 59.75445975189011 26.4513213761116 326.5850500451713
C 56.84997151839201 27.15842439285505 328.98105897862104
C 57.43515136212268 30.892972903454833 328.56105220308046
C 54.91396900262271 33.417132759086314 329.85952125850446
C 52.72793248989096 35.77510731498778 327.84471263227636
C 52.21032750948995 39.3907349746488 328.85896159726644
C 49.0376490678741 41.24904862500494 327.8642357403184
C 50.29604586573553 42.50728601687758 324.4980561507855
C 52.164678774715064 39.341783040066275 323.4901275912392
C 48.98872398063865 37.36721236139727 324.21073561490977
C 46.61884587931152 39.59210861715259 322.22447939053836
C 49.05367010181833 39.72372965692692 319.3004067024715
C 48.95244842270658 35.92683148487391 319.0405712717419
C 45.16594386432386 35.85191845203931 319.4026524497378
C 44.756257564092316 38.80756829345408 317.0521433531147
C 46.84325769534033 37.03619922457511 314.43121284637175
C 44.50324714482034 34.04552734135983 314.5488469045956
C 41.54336501784673 36.43171712439121 314.58020727947866
C 43.00407948790511 38.2353225336133 311.5570618388472
C 43.550481900735285 34.93310704093438 309.73522576279265
C 39.84974817468546 34.070819016534784 309.9100946189301
C 38.75488247258719 37.64756287898086 309.22488813227955
C 40.73184301165284 37.82787260141597 305.9808190207202
C 39.42439628616039 34.362792020998896 305.08458248438467
C 35.82486873552365 35.56757574863057 305.3773006634193
C 36.826242545557925 38.8568121411236 303.7570368189888
C 38.26555205103926 36.91943042762636 300.81622068355637
C 35.08683964641021 34.866485266125565 300.3633320233678
C 33.22215117088655 38.182840674534745 300.3925923106534
C 35.31963813849009 39.650395856217784 297.57214026228104
C 34.88315779947767 36.42467589439703 295.60937573717666
C 31.102638296309934 36.77245224723694 295.86586108487927
C 31.409027608340267 40.28474475808499 294.4124730934104
C 33.50407863068288 39.00743988216947 291.5046066933987
C 30.863106534149974 36.380979545142154 290.7520801896693
C 28.097419009287922 38.978038540981885 291.0338520705675
C 29.88438029331385 41.05380297497731 288.3827052265494
C 30.33479800284686 37.96722152619169 286.19574111980677
C 26.605660010870974 37.22837233662629 286.4648296797266
C 25.266021879270543 40.76011620329896 285.9721698027245
C 27.926753731773758 42.02467856728482 283.51125934903706
C 29.053978499820932 38.92556222627379 281.5926449128252
C 30.049393221154137 40.93588493966035 278.5179805220396
C 32.33159177775827 43.494424939400886 280.19396123343034
C 33.38976827430055 41.36897091364737 283.1876316422501
C 36.9687211550924 40.93817655076007 281.9458000048209
C 37.53347525826569 44.70201420972177 281.73897432080423
C 35.82406756805709 45.48227164191932 285.0727874543761
C 37.61500260187653 43.01595476898034 287.3747074059564
C 41.28616024097106 43.588116588868104 286.5392370792569
C 44.607705892152836 42.91256237316056 288.2352504187257
C 44.94038561572638 46.472002584507294 289.6294610465352
C 41.30124419104938 46.41217173892032 290.7520913227462
C 41.703370478122004 43.07278996686791 292.5323561487716
C 44.88411299998278 44.12974257782045 294.3492059927117
C 43.21261783171564 47.26365508967952 295.7198669526478
C 40.16434477174567 45.32076014775807 296.91248872846563
C 42.26949214593585 42.71314837801029 298.71256725735765
C 44.72201299518428 45.22222385447584 300.1933268320745
C 41.79814283989732 47.21261417201157 301.59568974552093
C 40.123674065685485 44.06635922760084 302.88591355561385
C 43.22604833331862 42.93995675675286 304.7787072583317
C 43.70919695647585 46.3278555288953 306.43595996069274
C 40.090922306099564 46.12958207223619 307.5865477499818
C 40.74727427093953 42.55808236967653 308.72826037036987
C 43.98306353403952 43.49593386371914 310.5136427733562
C 42.36422352448658 46.50308647891664 312.1843587473124
C 39.88368594191073 44.292092229072786 314.0309706158802
C 42.63979608456039 42.1130520344647 315.48048295282223
C 44.606768217566604 45.15726188777573 316.6149099489838
C 41.51398192715514 46.85399436251851 318.13324145007914
C 41.48705154096057 44.40013567809006 321.0664981642869
C 45.26842802293605 44.57688260842137 321.2705998678623
C 45.0343940678816 48.352783039983734 321.1988341235905
C 41.99515959001228 49.38908192513677 323.2593467795433
C 39.154756478187984 46.943560930495956 323.96542357100583
C 40.20706606734615 44.96707182370278 327.04982631265125
C 39.383653740688366 43.60379095071966 330.4585898274799
C 42.38774477227405 45.38400082213506 331.96146912859587
C 42.07933017668745 48.710847307132134 330.1554726457882
C 38.27048799665788 48.94940873266502 330.3156426346005
C 37.621754366756335 47.03157524739576 333.56908702883453
C 34.87509094078359 45.33061207560958 331.56049916398365
C 33.38150265733521 41.85855642653158 331.86133592595036
C 35.96915079554024 39.29401759732813 330.8396890650829
C 35.45510142494576 36.3649105310732 328.4781774545957
C 35.23538716221801 32.93545199659195 330.09902134100594
C 37.3114737252656 31.484753542474465 327.2297937873145
C 40.031457422941266 33.9847703036832 326.35161825940963
C 42.0479306244391 36.028321475741876 328.86712268342967
C 42.181266091666316 39.821075876392015 328.499805859491
C 39.28568259955388 39.766382692197254 325.98588524039127
C 36.30998190224779 42.107456125154506 326.29456873796056
C 32.887672474547564 40.495345977319076 326.01155656504966
C 31.39890876876965 43.397582332233114 324.05958188193745
C 34.25333647140463 43.23893124826592 321.5572754333407
C 33.27907151558958 39.6550449486263 320.71982531721596
C 29.679187598426882 40.67864149142522 320.0501850758691
C 31.015436946295164 43.16672676958413 317.5006228077219
C 33.41714567117618 40.57377141375696 316.0813829158442
C 30.87602133227317 37.733598007013725 316.0385603835942
C 28.1608443196498 39.91604276379404 314.5387729170567
C 30.437679127437757 41.18825695004508 311.76915483296193
C 31.543133314592417 37.74113652515377 310.5997749656743
C 28.08596952555307 36.22584209632568 311.1413288476641
C 26.464569449548065 38.830282926458885 308.8806233253264
C 29.189246930960042 38.40980614013945 306.26663933846487
C 28.906632382762307 34.61327763191103 306.3521375326806
C 25.105669985883196 34.73678901344023 306.1671808799194
C 25.44218250377046 36.83160112216273 303.01428961446294
C 28.21578676662659 34.65162963464165 301.56364556807006
C 26.0893469126401 31.537391883367803 302.0644857028578
C 23.166348502983684 33.16277561397491 300.2548527268967
C 25.433986333132523 34.558923966085835 297.54002054703307
C 27.269237340856083 31.296629066575008 296.8569652548729
C 23.926171078687986 29.518239478994445 296.424359063569
C 22.726374292223248 32.193586828491256 293.99371042239324
C 26.068857686047867 32.077272933548336 292.1543664039132
C 25.87794973502659 28.295863426557528 291.7713471306993
C 22.20884674460136 28.477179390756092 290.74481064005204
C 22.95590664357544 31.11522920662949 288.10901088652554
C 25.867834274883556 28.98224508862351 286.89875072301567
C 23.447988142512642 26.145330612381077 286.10474587002
C 20.856626357671388 28.37554547181229 284.41025496098166
C 22.807911284137717 28.533530058050182 281.13862386897347
C 24.426678000005623 25.099737269802176 281.2315155371593
C 25.17769144478911 22.248775914118657 283.54074473696505
C 28.59684385723785 20.725463108825014 282.9601830145957
C 27.814318909141353 16.99925653164734 283.185446566167
C 28.941585128209187 14.447408000981037 280.61467131491275
C 27.500606050875643 10.943945381064184 280.33092738521896
C 29.425996287810126 8.06386275389776 278.7771735262742
C 27.69108589476049 4.7487463964501915 278.04624169304174
C 29.86844859369449 1.9971778720159064 276.5986403793096
C 29.339524558303356 -1.561523202387021 275.4569202316264
C 32.47134546094313 -3.717724381148641 275.5077468737444
C 33.24276665951517 -7.4286075142623496 275.8850765614116
C 37.048249227174466 -7.532844487620372 275.67420963206445
C 37.510022099811344 -4.037807615268121 277.1224978860268
C 38.74592951212281 -2.093770116743399 274.08844877934536
C 35.743131781112496 0.2279405095724821 274.11969425753426
C 35.903867198861256 0.3996867106342059 277.9292566127303
C 39.52839882956331 1.5365334958796057 277.73137786723663
C 38.52394246623264 4.014695501634988 275.0203840767214
C 35.73891711091705 5.447156815125924 277.1807427763471
C 37.96383646299048 5.651114914557888 280.26959147123756
C 40.54274712267216 7.563510353932519 278.21957804710644
C 37.905796049185724 10.022265615298545 276.986474347066
C 36.61445627395177 10.23250209776605 280.56201073486227
C 39.83923548852251 11.660636769523474 282.0018098007221
C 40.34365931921616 14.239855362614643 279.23312803579705
C 36.85728690250177 15.625606117746422 279.88432011082483
C 37.37555429248868 15.394253791380258 283.6535922698529
C 40.433660825467825 17.638915440696163 283.34805887886546
C 38.586497176713344 20.04297524186416 281.03539806978915
C 35.90379985169186 20.85514298618056 283.61738134254506
C 33.128655797125674 18.31158808981668 283.034691321842
C 31.45193863126999 16.33574441297096 285.80711108652434
C 31.954332260661133 13.008437417984656 284.02842069542305
C 29.65128571141816 10.03296155421676 284.6842810264301
C 30.81188442827852 6.79576545689188 283.03570192662204
C 28.480529201031356 3.786134253353853 282.9963700405266
C 28.43280863044992 0.35236610424586223 281.39277986626
C 25.496484757925362 -0.1599383707816696 279.0270733416588
C 24.50223411431751 -3.3481102326546046 280.87311082943535
C 23.679853287722786 -1.3432134158726816 284.0265354946359
C 21.46738049906296 1.4710526867878948 282.67200543756354
C 17.78094564753715 1.913150505494735 281.9035313688476
C 16.98715143571961 3.7711212750898464 278.69006600146577
C 14.045147729086356 5.787691387422333 280.0224478796351
C 15.195474934518737 9.336204029692283 280.7147579229673
C 18.83034696118969 8.220969544843992 280.7294973381293
C 20.249706519026976 11.389297070858767 279.1617272028074
C 18.357610709757157 13.771921089292986 281.45490767971614
C 20.54158656692019 16.087325171310948 283.5133569796981
C 23.478472889622942 15.748232730474527 281.1068773926216
C 24.254871570080198 18.209870769234193 278.3233635507103
C 26.930216434066622 15.990519722371907 276.77124825408123
C 26.36229966448147 12.288841523607337 276.0843887787668
C 28.938685768976292 9.967741033698347 274.5192426862312
C 27.76505652436413 6.541725077237796 273.3905630039944
C 30.435865810784144 3.937209860133353 272.6684611400918
C 29.868941139577938 0.4862105117112494 271.23020350026627
C 31.922577181617406 -2.2096150704250803 269.5188130826333
C 30.78023746807115 -4.0680178501313495 266.4031841862697
C 30.215729764318368 -7.838479628705261 266.38594313169676
C 28.953472642976163 -8.684426098856402 262.91418808574554
C 29.801150723711665 -12.385483108099178 262.6159771033997
C 28.323556326915025 -12.470855718807996 259.1188471979191
C 25.99796473297695 -9.46004748547071 259.5066473134038
C 26.28971758810032 -6.238658624670096 261.5326224745986
C 25.573560084230557 -6.371397443444655 265.25708528248396
C 26.055601772823305 -4.106822001771871 268.25196593094546
C 27.83129621431057 -5.317809746621475 271.36194669534837
C 25.20697234948561 -7.288307234302446 273.22774884757104
C 25.059821030294437 -5.118660035726469 276.3471265559155
C 24.221917465438917 -2.089417541812687 274.1867416061114
C 21.291364400430908 -3.5415212431139635 272.2272349331723
C 18.622923761899713 -2.9527005265152058 274.9397218836246
C 19.620963609632092 0.7171658260815748 275.0192873443344
C 19.75211941655248 0.9250425122793589 271.23263187492483
C 16.27968144223019 -0.585052409451805 270.88148881987996
C 14.779015511703854 1.9794764764116812 273.28502662035936
C 17.002343216808228 4.917492141280062 272.3671018117982
C 14.025240803352583 7.207623751553646 271.69470872779476
C 13.234554748216473 7.110631640502234 275.4390430679551
C 16.601883216254187 8.55014540737795 276.49759141711695
C 15.871997812220666 12.219550804285216 275.79596896039624
C 18.292596997776407 12.576543385186701 272.8674936525807
C 16.329507333017908 15.183592180675408 270.89424219528144
C 18.06617912761666 18.542073487482774 271.09204277512407
C 20.87842260453726 17.14200210994201 273.2230357771602
C 24.57783165900979 17.164650282838178 272.3338034944475
C 25.89073170388793 13.660454779192154 271.59522303807506
C 28.792368161409442 11.91327694716875 269.8943351260249
C 29.69756588728148 8.293292320594205 269.2670731453848
C 32.81730688538704 6.156765642953879 269.47510388096674
C 33.54928517867922 2.4774164191576387 269.04676632778705
C 36.20039765323412 -0.18730724265239088 268.53846914341244
C 36.26374206072955 -2.3386977787876235 265.42284809285053
C 38.582984771069405 -3.8918181471726085 262.8600644559084
C 38.88994140587599 -2.984691823361638 259.19177555411767
C 39.13138936311948 -6.585888795220047 257.942252382403
C 35.36159253517317 -6.855506346482704 258.4407249164316
C 33.01271017487526 -5.596649244781921 255.7654826212579
C 31.433681501262875 -2.8762505070711493 257.9238587670861
C 34.22116401042522 -1.2668275209112647 259.93716168814126
C 32.65758786651689 0.013731452622864293 263.16858632973896
C 29.176398414405654 -0.47547350872211847 261.74338313489545
C 27.894067457755206 -0.0776260873196247 265.3029079019382
C 28.778470027834608 3.620341596781852 265.53634328970054
C 27.188988700113086 4.129967630169581 262.11212264437154
C 23.942991365576322 2.5780339527213534 263.34120248042296
C 23.97599780969184 4.579627090458534 266.5801467012566
C 24.712812697809596 7.886091113176012 264.8377437277824
C 21.983920675270515 7.3393312880882755 262.2316286202927
C 19.426307884620456 6.68192670396758 264.964743204278
C 20.67509623820335 9.69147967046259 266.92752876984366
C 20.18890989104184 11.807491904570186 263.8001406096977
C 16.693107261107734 10.396023969405487 263.32160663116207
C 15.921470566549322 11.343684546951197 266.93950086006646
C 16.918040693883086 14.983284873278054 266.4896625846909
C 20.02361291971353 14.8179942428136 268.65297698883836
C 22.648814171598787 17.513536930146294 268.0817586812122
C 25.655866153205118 15.461146578174601 266.97647431223425
C 28.659167434620027 17.59179592353137 267.88697721138675
C 31.14952387087595 15.874287750453437 265.56742994223066
C 31.857112284081055 12.719466265707124 263.60447212655606
C 32.240224076615355 9.43920546610234 265.41228424368666
C 35.501421140102124 7.989954133642631 266.67957133243743
C 36.25789279819679 4.697976613461126 264.90450500735164
C 39.20470599691911 2.8033560287860877 266.3934651375457
C 40.88768891775723 0.14228593322216576 264.2622011824844
C 42.6604522586357 -2.6761143547042576 266.0525007417626
C 44.078532720099936 -2.0779589635022147 269.5092038117592
C 42.92623945812374 1.236127433265444 271.033601371091
C 46.09126980273391 1.5358703487530037 273.12093507823056
C 48.07350854156979 1.7991461470201155 269.86026142221897
C 45.80594403726036 4.6695900474372944 268.69952370356145
C 45.682263117021265 6.754912491518662 271.8893868706887
C 46.61068314399413 10.035142670357182 270.1703603127204
C 43.367577053796836 9.887383704110732 268.180465211242
C 41.1935559152013 9.051683429398583 271.1987626833312
C 42.61758029677427 12.01357532586049 273.1104829870322
C 42.412074310774635 14.196641192674482 270.0068551487011
C 38.766625390225286 13.25313727491329 269.4855075163258
C 37.94293529511124 13.905001615959293 273.1457499390204
C 39.54181998260433 17.333788081769963 272.7555323159014
C 37.24859089738497 18.17865596203595 269.84302201840256
C 34.15576453769018 16.88327697312034 271.65950926915235
C 35.20581296161846 18.95005458448827 274.68809630070615
C 34.09590761998829 22.152871655748694 272.96610389169507
C 30.446381263501355 21.07686889473491 272.88909420649816
C 29.827461381143355 23.34574327724428 275.8999511454858
C 31.670379835743773 26.70292577655612 275.80485707723216
C 34.72245905428478 27.124753359647425 278.0316335285652
C 33.169353215257566 30.07118319545148 279.8670647511178
C 30.13437438672681 28.04032910282406 280.94173538608584
C 32.239435039254715 25.15961563517112 282.2516663464102
C 34.715851328330366 27.53578177149843 283.89124292563565
C 31.925412007513522 29.46752127373063 285.6069690723474
C 30.561738974180596 26.17117495610644 286.9604920913632
C 33.83240300414872 24.8770106355369 288.3934094802766
C 34.51717180526677 28.311874824559887 289.8884318853757
C 31.071536896682545 28.20519689145821 291.4850549572358
C 31.568163445659856 24.58397599206838 292.5780652892394
C 35.01199000807091 25.350765639396066 294.01648332447206
C 33.76833180316227 28.308276358335547 296.06584358087423
C 30.939970846886993 26.36995570015682 297.70981717518606
C 33.431734250431035 23.695724266561214 298.75216397316285
C 35.75512191493318 26.27303620986547 300.3309272508766
C 32.73198809168473 27.695885351207178 302.1472359154459
C 31.36364690807393 24.383648167636096 303.44696736037673
C 34.80784006698423 23.37200415816257 304.7076556873725
C 35.137310810732956 26.74113974703756 306.4384702997861
C 31.765953367329843 26.326070992549727 308.163578325697
C 32.60014596302267 22.775237244435253 309.2514577700197
C 35.92407225703355 23.68806992954847 310.855494843706
C 35.47003442232298 27.21039413949681 312.20939626507277
C 31.718025141428114 26.971630002079323 312.77353553707025
C 31.861755671424085 24.984136157509283 316.02255542504446
C 34.388830291984185 27.38813212010288 317.55383077956725
C 32.110845454617504 30.29613455754448 316.63535754084387
C 29.22162976561324 28.525327494544317 318.3619541856826
C 31.412290954882828 28.245373260928815 321.46282470399063
C 32.078347346505474 31.988879899421864 321.3500460470526
C 28.333833769686827 32.57765554475657 321.0125732252692
C 27.795260913737284 30.514708266308308 324.16446561260983
C 30.366743326156886 32.73372076714498 325.89113031640466
C 28.91758741426826 36.17102633745634 325.13255443584785
C 25.183353000226216 35.726091014635806 325.7191914155481
C 25.20249533708163 33.32737446247178 328.66248637180865
C 27.82629512375334 31.49750912745473 330.6902140215606
C 29.889853180522874 28.498818056535924 329.6036751477495
C 29.450327353413904 24.86632154955027 330.60497820629075
C 32.0540833304753 22.431859750155876 331.8677832434648
C 31.317758389523043 20.41984383746904 328.7198075200521
C 31.71813000567626 23.303225803621697 326.2640031055249
C 35.12421830559845 24.150641038358902 327.76209526465806
C 36.19841775826407 20.55892189936958 326.98228874131144
C 35.010093085364865 20.25335125044695 323.3740490595003
C 36.67114029270571 23.633371593982663 322.7874100303378
C 40.078353970456874 21.933121338974395 322.9266799390419
C 39.03776334260791 19.79434894822499 319.944714653354
C 36.97258809581755 22.42330928892054 318.1247632618444
C 39.999612006268414 24.729193450625118 318.09315192056977
C 41.96370517692335 21.935954312083624 316.4030602679028
C 39.268785613037046 21.859642972498197 313.7219168332072
C 40.221025053503055 25.478035349576448 313.0329073480046
C 43.756706299059246 24.354840972309777 312.153042458285
C 42.864188379119284 21.5806861916921 309.7143745071944
C 40.81769325430378 24.08893273714144 307.72431371105665
C 44.15758014852457 25.693058009429393 306.8609081419063
C 45.531936229001374 22.24782677052055 305.9331062465186
C 42.8130289973726 21.03962675608847 303.5637837682948
C 42.48867217789292 24.349363259156256 301.70331192168806
C 45.87524110211295 23.8387470702854 299.98269926324184
C 44.60559231606801 20.31890473433079 299.2656954652638
C 41.414233254663664 21.746105600966917 297.74661857415265
C 43.37548352578809 24.148168248145268 295.54618868889264
C 45.44576596950993 21.256547928986915 294.1984233816957
C 42.481373874654096 19.06174810054764 293.25988489266416
C 40.39007691128514 21.694205095334038 291.4520350238169
C 42.807332903253496 24.302808760314765 290.05822730678983
C 44.15513863660424 22.49782216107357 286.99979001527913
C 46.41417596572581 25.464284322134144 286.19705206744106
C 48.074381849728354 25.356861755587456 289.62202004562994
C 49.077073772612444 21.72608316890707 289.0789575380424
C 50.88332708433214 22.666494038485222 285.8665760849606
C 52.60537032271095 25.65594371039971 287.47957999406975
C 53.72256479832386 23.22484378103404 290.1929165949141
C 55.13263602763836 20.75887146495338 287.6551404202915
C 56.8334024550506 23.72351004691829 285.9512988526495
C 59.1924259474152 23.736310894061983 288.9437778104246
C 59.330449503808595 19.920433914212754 288.7108241594775
439
Mode 7 - Frame 27
C 49.24496753352657 36.1786429982897 337.39553891380524
C 50.67703652273844 34.00270901960779 338.7419262484657
C 50.51483593141721 30.753115450648444 336.8103339972179
C 50.27676997045197 33.11145560768915 333.8328585555858
C 47.52879252317798 34.019466267621475 331.3815446851117
C 49.04249755047364 32.26917683853652 328.3676642486743
C 47.920601583998014 31.431440200565504 324.84620676509473
C 47.006819802246355 27.753194087437876 324.38794756877047
C 46.722143812829685 27.26677137908305 328.1727373223028
C 43.3717536310603 25.477020726346094 328.15935842788963
C 41.597411650810834 23.438880605650354 330.8492509497219
C 43.17302229510182 20.18738909296086 329.54568311950777
C 41.00500247084509 17.53599338816139 331.1717730232658
C 43.283184391993906 14.48810281102812 330.88308531651694
C 41.90996322589856 10.973130874104825 330.4469733978998
C 45.40878368754845 9.542579229977616 329.87802657828513
C 48.97020221773788 10.721936461926008 330.5153602666414
C 51.775716493078654 11.134083179376198 329.49715081158723
C 51.33453522646137 9.338294359058356 326.1703964110577
C 48.58596436665435 11.831101992260052 325.37698243920374
C 50.821743162689124 14.71390907627685 326.4489388754806
C 53.74941498151432 13.296998384437082 324.46940649195886
C 51.895420088257026 11.882684725200415 321.45824604395193
C 49.398695830003476 14.739260161086271 321.08061292356507
C 52.271899553980816 17.21329648004997 321.3614183190913
C 54.33332108737696 15.698929450030974 318.5382574548861
C 51.16274271183384 15.03807656211757 316.53731977918954
C 49.82916598491722 18.587989829325984 316.8592586428973
C 53.23844187513004 20.15414530896779 316.22070553713525
C 53.76826708178295 18.023143186405186 313.105050284713
C 50.29292478735884 18.903739483673473 311.8284465837951
C 51.02175695961325 22.596081372882544 312.33320871928316
C 54.40772204750179 22.62699601961392 310.60424714437545
C 52.9371754173871 20.64709830986776 307.70122876738026
C 50.339065171055154 23.393006000715484 307.2293105052795
C 52.89835160076179 26.20901740441661 307.29922219910117
C 54.952297222661564 24.483569332521945 304.60360519404213
C 52.03993831573676 23.46027445810107 302.385057669337
C 50.52944564056708 26.954750204636735 302.52959028522645
C 54.02015570228271 28.341057709460703 301.9549011344956
C 54.09686133615879 26.052642186907864 298.91155820925684
C 50.890823901660134 27.614742152558293 297.56068138676505
C 52.32470503387909 31.094071032716545 298.13300716224325
C 55.41196234442587 30.04044245730364 296.16100956713035
C 53.898938202544194 28.743946657312367 292.91152845163504
C 51.70483635716473 31.84949428595224 292.6299285609339
C 54.427450839343486 34.462383105503825 293.1212115984378
C 56.793477556069256 32.26436211083738 291.0923650551794
C 54.73058893020428 32.123874776409764 287.8885606438747
C 53.49194903567352 35.18635791762172 286.01128788585197
C 50.609223656006584 33.35871635798961 284.3163787625271
C 48.90832203527403 33.27232138170165 287.74909830220963
C 49.89028852312949 36.501246420191876 289.53527962032405
C 48.178738739463824 38.369701812656345 286.67835110221466
C 44.913551420484154 36.44299756704511 287.15880705643417
C 42.36088993851436 38.02034955713726 289.5443018535656
C 41.25242187280443 34.52947517507633 290.61267686210977
C 44.68047596994454 33.77121086666186 292.1115397646035
C 44.64879849542193 36.99865374884592 294.0940848390875
C 41.83227846617554 35.13103776333385 295.87519111389076
C 43.701167900936476 31.856749279720294 296.46889290289073
C 46.915237458682675 33.62275471575097 297.4517210698902
C 44.931031138506206 35.755944448713564 299.89258730731376
C 43.401115177761916 32.63473868337474 301.45256351448944
C 46.72288370673814 30.790713535354424 301.56079559649584
C 48.526973728120886 33.677979384503914 303.2688118976744
C 45.59646523244745 33.87041183538844 305.6903107780625
C 45.87081642421234 30.129058380499142 306.34347955498464
C 49.627222680453734 30.602855093274723 306.74529858685474
C 49.32811888172082 33.554429056227335 309.1458815312476
C 47.29942759787756 31.334657556135223 311.465936501445
C 49.29269594698782 28.129420882633177 311.04316477667777
C 52.47673430989723 30.092354645352287 311.78625701485566
C 50.97651767463651 31.524394000764516 314.9801128819421
C 49.867395531007396 28.017928341139697 315.93394802962655
C 53.323156057481356 26.45328224528391 315.655188344087
C 54.95728041285136 29.501784396413772 317.2426995235046
C 52.64998093744968 29.602531383143322 320.26931534627744
C 52.74234443360596 25.804350855193384 320.5608350228466
C 56.54546778752919 25.596786713123223 320.68378774954965
C 56.730970585172855 28.785859179307664 322.7746769956121
C 54.54437923694514 27.344755662423744 325.56443323716286
C 54.46335490820184 23.534245606091424 325.35822708762316
C 58.26395108504034 23.33621988437629 324.93709703371565
C 59.74871910055654 26.438919831543863 326.58169467205704
C 56.84349670794684 27.144328856511265 328.97728362405417
C 57.42884801102646 30.879180811023957 328.5602050619588
C 54.90728566119001 33.40247102002229 329.8596213427301
C 52.72188395247734 35.761914293674536 327.8458179931221
C 52.20398733356651 39.37678356595631 328.862523593375
C 49.031659781796236 41.23586787323913 327.86815853877613
C 50.29101891094898 42.496564319814915 324.5032708352382
C 52.15993761977555 39.33179366456951 323.493654885158
C 48.98376431816115 37.356715119449476 324.2118361710768
C 46.614487903851725 39.58309646214348 322.2264697398912
C 49.05018510156716 39.71688729544322 319.3032484754743
C 48.94900976600919 35.92017689247912 319.0406609003539
C 45.162401632124684 35.845036621629674 319.4014707659682
C 44.753485978489834 38.80243212153435 317.0529496118593
C 46.84132231000568 37.03302172139972 314.43137740629
C 44.50131396514497 34.04228124309788 314.5461611702054
C 41.541407195998744 36.428431350672014 314.57828243392913
C 43.0030175857753 38.23420982109472 311.5568398540813
C 43.5499630421956 34.933293720212156 309.73287893932525
C 39.84917364973214 34.07085685238177 309.9061027565832
C 38.75448892865383 37.64807237601071 309.22303000666255
C 40.73229394500727 37.83061697501735 305.97960251413303
C 39.42514966749981 34.366180411274215 305.0806976873118
C 35.82552334805125 35.57080029521597 305.3732657260448
C 36.82723712436172 38.86103255285363 303.7553566663119
C 38.26731815328451 36.92561215154576 300.8136658650119
C 35.08875468177767 34.873073639529935 300.35866335919917
C 33.22400107990444 38.18935474734942 300.38933263011063
C 35.32201341433707 39.658466319868424 297.5702294271409
C 34.88626066430189 36.43394215568581 295.6055341620397
C 31.105640709943188 36.78155620658711 295.8610818167371
C 31.41236674745007 40.29420567986936 294.4090292791315
C 33.50824333092469 39.01821888193492 291.5013440060434
C 30.867683514831786 36.39185478155171 290.7468370023001
C 28.101930664877774 38.98869238697597 291.0284475161501
C 29.889736270452392 41.06492418152938 288.37837665552377
C 30.341111939546924 37.978882402492886 286.19056881734093
C 26.61179373882287 37.24000168496154 286.45796640778383
C 25.272498069980085 40.77200815500694 285.96586259649274
C 27.934122208280975 42.03687106675939 283.50618776408766
C 29.0623452716437 38.93819716149563 281.5872836661687
C 30.059136691095365 40.94928863711958 278.51359439858487
C 32.34024845343342 43.50771574617403 280.19125159780526
C 33.39734276751835 41.381311353016436 283.1847818530176
C 36.976723612760104 40.951728341825586 281.94458747363916
C 37.54111100851516 44.71580899623233 281.7391887461445
C 35.82990703642973 45.495176382739736 285.0722047177314
C 37.620019424173066 43.02913481121002 287.37476857476787
C 41.29135316464953 43.602517143088605 286.5412780854615
C 44.61236662981921 42.926451619233916 288.238124863928
C 44.94385896783889 46.48517263056987 289.6343820278004
C 41.30432899511714 46.42405208052199 290.75583525577116
C 41.70663793792904 43.08391389285535 292.53437226266936
C 44.886807116598646 44.14004018311036 294.35271689625955
C 43.214788295907944 47.272925700338604 295.7249121333552
C 40.16657232101605 45.329172567592 296.91573146721925
C 42.27147982868445 42.720643407914764 298.71474829446976
C 44.72347367693674 45.228866877796264 300.19764870102273
C 41.79936731978661 47.21813031211492 301.6007719726056
C 40.124787489144204 44.07109243789299 302.8886493674565
C 43.226665399683185 42.94351976480431 304.78148619805006
C 43.70936483828688 46.33018535777231 306.44119475435065
C 40.0909385485476 46.13113284141575 307.5908234345113
C 40.747007875773335 42.558901377431255 308.73029650740597
C 43.98221402410235 43.49552957611368 310.51727142181153
C 42.362922453585206 46.50139594448784 312.1897192287918
C 39.881870085590805 44.2891461509748 314.03411261273203
C 42.637539088303576 42.10906907469527 315.482890671308
C 44.6040989332448 45.15239882901193 316.62015519793584
C 41.510849851510514 46.847932890203545 318.13883551028414
C 41.48306868436159 44.39195409351068 321.0703661011963
C 45.26436646017238 44.56854487288259 321.2757008844941
C 45.03033960365726 48.344466119916504 321.20660390748463
C 41.990526974231024 49.379239122572315 323.2670093891596
C 39.14999907879924 46.933199874690246 323.9705614437166
C 40.201407718493364 44.9545133928681 327.0538347047987
C 39.37703630694671 43.588782555209164 330.46139331693126
C 42.380690193895795 45.36790326691881 331.9663884202503
C 42.07278038624136 48.69603618684979 330.1626908283411
C 38.26390521285383 48.93448024248629 330.3219890521087
C 37.61427966873204 47.01431231996731 333.57387714416416
C 34.86817305040721 45.31480484747369 331.56332160726686
C 33.37449869476195 41.84255177529436 331.86126569830367
C 35.96242944903893 39.278752762847716 330.8384997266218
C 35.4490175704888 36.35134053494726 328.4747954456588
C 35.228825458552045 32.92072351871616 330.0931632855779
C 37.3057301527011 31.47205259360862 327.2235651897087
C 40.025926315417124 33.97269302155018 326.34772598332006
C 42.04167342008458 36.01445651186 328.86521552327014
C 42.175147812490856 39.80747131368191 328.5006826736153
C 39.28031347422571 39.75459549985671 325.9859092316824
C 36.30455020561833 42.095444524219076 326.2954951239832
C 32.882305465922094 40.48356646047812 326.01039492663824
C 31.39411953197996 43.38721680224601 324.0600874062676
C 34.24929404812274 43.230374287304194 321.5584721936522
C 33.275293540082586 39.64709138859629 320.71818938044964
C 29.675594411925236 40.671190390770725 320.0482648721379
C 31.012627859600677 43.16113935327866 317.50091071930683
C 33.414815591415916 40.5692199489106 316.0804666369285
C 30.873717246421815 37.729082794048146 316.03488926377116
C 28.158995353366517 39.91268891290213 314.5358935933474
C 30.436700923436753 41.186948891299174 311.7678681224996
C 31.542478273473858 37.74068986977166 310.59626804290775
C 28.085139668741142 36.22503887947638 311.13582461969224
C 26.46445040217573 38.831269063355634 308.8765209332452
C 29.189822479112074 38.412564407931036 306.2629517125793
C 28.90712734954523 34.61593733108196 306.34583707272503
C 25.10615709147324 34.73975991861345 306.1600351302172
C 25.443607748578877 36.8367018765743 303.008584531537
C 28.217503799952553 34.65756065602815 301.5572388997974
C 26.09094684356207 31.542954494451823 302.0558128293232
C 23.16836621528638 33.16972140200334 300.2465212382976
C 25.43670693033079 34.567302138563655 297.5329083160313
C 27.272114520077665 31.305277946764733 296.84861024152093
C 23.929062110474774 29.527178862092914 296.4146673802222
C 22.729850011592532 32.20391699425724 293.98499056968325
C 26.07265046244294 32.08808683507941 292.14613658450236
C 25.881932324871613 28.306971995288027 291.76186699892816
C 22.21264180838161 28.488849075761955 290.7352336084402
C 22.960316355839872 31.127306591135035 288.09981010585443
C 25.872050059397758 28.9943191528882 286.8893952744018
C 23.451962703006675 26.15738679731186 286.0960186067381
C 20.8606765517924 28.387347681964215 284.4012122117814
C 22.81148379855432 28.54303586436395 281.1295039970023
C 24.429672113306285 25.108572586284325 281.2240907681165
C 25.181728031997338 22.259275607151054 283.5349445075276
C 28.601057638494513 20.73581913904417 282.95491833096344
C 27.819478662139797 17.00986480518289 283.18493509456357
C 28.94585299856139 14.45568498261133 280.61620342729265
C 27.50528766105257 10.951691905812842 280.337214273638
C 29.43038725932637 8.070372210868667 278.7854995264661
C 27.695667190249633 4.754234894118791 278.059361751809
C 29.8727450075327 2.0015308820961857 276.61355860228986
C 29.34380509121391 -1.55848702633254 275.47617014499866
C 32.47608154925043 -3.7140189765009657 275.52745114263575
C 33.24845997797622 -7.42429937066713 275.90847493149016
C 37.05384166152382 -7.528068689250183 275.6952805566094
C 37.515871073635694 -4.031367069906286 277.1393274105536
C 38.749498215852874 -2.090473264605921 274.1023617729926
C 35.74624008525617 0.23067068650337624 274.1329287614862
C 35.90933044194908 0.4066510845218001 277.9421644955068
C 39.53354187464397 1.5439480142259672 277.7407064331676
C 38.52688129103671 4.018940297658019 275.02762077525125
C 35.742906521058146 5.453186682707188 277.1881135431621
C 37.969724245478055 5.660916566420761 280.2753214140215
C 40.546981126959814 7.571556881042818 278.22154777162035
C 37.90876548348761 10.028481794376649 276.98742046615894
C 36.619587309885134 10.242222806297418 280.5634718891507
C 39.845039851958745 11.672419893256498 281.99975899393326
C 40.347284508644854 14.248875047902905 279.22808390279
C 36.860989948224166 15.634677909400791 279.87986299398244
C 37.38129200774758 15.406953207052974 283.64866014242745
C 40.439167212342994 17.65189464784952 283.3392661789163
C 38.59036532008188 20.053642320977247 281.02611634577494
C 35.908650003392324 20.867238395668164 283.60852122933017
C 33.133536064431 18.322754219599986 283.0295294299856
C 31.458641282477203 16.349177488507973 285.8047882369251
C 31.960952620917638 13.020680331390755 284.0295870876901
C 29.658752030822477 10.045722064092695 284.69028492677785
C 30.819225581776145 6.80710356378611 283.0445446318408
C 28.48836273109856 3.7971862038666906 283.01009043814275
C 28.44037468693516 0.36169712931151954 281.4103866685721
C 25.502655123719432 -0.15367954700057934 279.0471274740244
C 24.510129334306175 -3.3399339676197526 280.8973382632523
C 23.689291520634633 -1.3316706688468232 284.04900169383893
C 21.475454173233185 1.4806582908705725 282.69270093653023
C 17.788483059651252 1.921272261413456 281.9259984305753
C 16.992346200196884 3.7754861171495393 278.71095789605573
C 14.050761382314056 5.792982328182693 280.0428418260956
C 15.200811126257863 9.342433083667952 280.73048780033787
C 18.835918963566197 8.22787479028097 280.74423640793253
C 20.253739954861363 11.394670446227988 279.1720280223503
C 18.362500402889168 13.779463635478136 281.46370737082543
C 20.547317534985638 16.09729192446978 283.5182997168564
C 23.48276422422902 15.756128239765154 281.11024793536785
C 24.257198045436397 18.21512420898429 278.3237056617693
C 26.932052699364675 15.99459220934089 276.7724506964052
C 26.364327586811335 12.292010508092945 276.0899520388892
C 28.94021485963408 9.969676684736264 274.5258817726427
C 27.76650810604004 6.542200665598568 273.4017343781426
C 30.43735726245493 3.937375044345407 272.68090815115363
C 29.870207786316083 0.48470310429414876 271.2468855112489
C 31.923292745508558 -2.21262233959044 269.5372491685386
C 30.779351596019904 -4.074703940086881 266.42446948736085
C 30.215577202032875 -7.845278237577926 266.4118780792998
C 28.951283264422866 -8.695417037045454 262.94195333634684
C 29.799446758463464 -12.396671185037686 262.6475494859994
C 28.319676998242386 -12.486356094354166 259.151492022792
C 25.993790967261692 -9.475507770867761 259.5372433562538
C 26.286222660512983 -6.25169152099255 261.5592516285687
C 25.57239771011004 -6.380303802980662 265.28424485403957
C 26.055894081899464 -4.112294693624291 268.2762236567954
C 27.833742971775628 -5.319521975820335 271.38641749945964
C 25.210950211621334 -7.288452061769986 273.2560240378082
C 25.06529392524094 -5.1153861967880605 276.37302315741516
C 24.22548868761169 -2.0887030810250207 274.20979188706247
C 21.294005960041755 -3.5435028428959336 272.25373604843537
C 18.627120838533347 -2.95213596274191 274.9671664831554
C 19.624525185041662 0.7179673866967626 275.0420144780033
C 19.75334879325425 0.9216887139683312 271.2550779251609
C 16.281002380497682 -0.5894316483501307 270.9077278014417
C 14.781311895066608 1.9774953533786708 273.30927165866694
C 17.003525806516375 4.914880572618207 272.3867318784309
C 14.025608575596863 7.203730327293283 271.71358474365496
C 13.237156514304296 7.110708648606697 275.45847635846854
C 16.60483442767665 8.551996521297239 276.51335610368886
C 15.873879781929908 12.220480939466903 275.80810075117944
C 18.29268124818266 12.574757331337363 272.8778432974162
C 16.327937873050708 15.179287242672748 270.9029719535947
C 18.06405111048231 18.53829509973785 271.0960059142923
C 20.87791614227849 17.141165441137876 273.2267913223747
C 24.576821567227135 17.16367810900051 272.3353079737801
C 25.88995156534238 13.658896305966243 271.5997756628044
C 28.790827796230968 11.910292252473344 269.89907337491843
C 29.696193243066435 8.289677241198117 269.27521107397035
C 32.81640650116509 6.153887839946158 269.4836534979191
C 33.548807446247956 2.4741935099503625 269.05894048032076
C 36.200105464144634 -0.1905879222723464 268.55195976595735
C 36.26191447238185 -2.3454507818745465 265.43876817650903
C 38.5798521008848 -3.9010546695333383 262.87635742122404
C 38.884309118367014 -2.9981358931207436 259.20687457479454
C 39.125663427045964 -6.600755085133566 257.9614328573548
C 35.356242238427626 -6.87045258995381 258.46252434491663
C 33.005453772396336 -5.615119582124885 255.78733270322724
C 31.42726732090737 -2.8925045771025335 257.94353964389927
C 34.215694242819886 -1.280243222157707 259.9532252694586
C 32.65391100119856 0.0037528618384626913 263.184143022936
C 29.17192492765728 -0.4877088771095678 261.76170004742687
C 27.891753729052343 -0.08606653341678878 265.32153322213765
C 28.775654025215157 3.6123260204001824 265.55027833668873
C 27.183973696195867 4.117849095567793 262.1265219326471
C 23.93902108905823 2.566737780636873 263.35934810309664
C 23.973698641399043 4.571969943499342 266.59600435875944
C 24.708879773025686 7.876664503641379 264.8495044911505
C 21.97850177856474 7.3265095575000885 262.2457130738708
C 19.422689551456877 6.671698237610615 264.98110332947215
C 20.672149321968845 9.683644285748125 266.93975258551086
C 20.1837023057803 11.796099994479688 263.81035500366664
C 16.68785841426683 10.383475542843128 263.33548662479365
C 15.918236337454761 11.334970103681563 266.9527757950986
C 16.91385104801425 14.974235870705074 266.49830445768634
C 20.020767044557047 14.81193279552377 268.65988067805677
C 22.645089995635573 17.50736203031062 268.08410875676816
C 25.65192205320051 15.454426113342791 266.97930195094784
C 28.655369406575332 17.586821220893835 267.8859366908715
C 31.144606042730413 15.867119658725832 265.5667128890497
C 31.851444273299716 12.71017028486389 263.60667305142124
C 32.236205150242675 9.431845519561742 265.4176603006651
C 35.49840630087524 7.984528242232416 266.68446925767086
C 36.25436124172519 4.69066451015033 264.9125526522017
C 39.20246783410771 2.7982642322654625 266.4017301743814
C 40.88461809775678 0.13511822139934504 264.27240291329275
C 42.65910336927611 -2.680898757371563 266.0647304168943
C 44.07925757897928 -2.0785947132459235 269.51982310675254
C 42.92723468237703 1.2369370201647731 271.04121075658077
C 46.09351302479548 1.5396604779218577 273.12617507373955
C 48.073611284358726 1.7997427647528739 269.863969794771
C 45.8047013950995 4.6684214093008665 268.7015047889698
C 45.68262622443855 6.757230411964705 271.889096935765
C 46.60928598645112 10.035740014910408 270.1658947913932
C 43.3649477335852 9.88521291884329 268.17827738634423
C 41.19302158342484 9.052376781455152 271.19881229602464
C 42.6176680386407 12.016590903902369 273.1064099336435
C 42.40975914940059 14.196298089978104 270.00061372307243
C 38.76419502187502 13.25164517815608 269.4826836764776
C 37.94273976518988 13.907300904323698 273.1426663621022
C 39.540812331855115 17.335922954009163 272.74789498221986
C 37.24554056922228 18.177473543996115 269.8361185367273
C 34.154141307304705 16.88363718382414 271.6558488351575
C 35.20585206328765 18.95380619790055 274.6815954036539
C 34.094463534183866 22.154989056268764 272.9577198953552
C 30.445047216166348 21.07835970168443 272.8836390318873
C 29.828201153925704 23.35039619929834 275.89285342335813
C 31.671136656156733 26.707749602791488 275.794852223753
C 34.72340837043957 27.1325400278033 278.02021201099757
C 33.171369942426765 30.080761515794062 279.8551349696356
C 30.13722291555986 28.05008597714631 280.93175597298375
C 32.24289805903631 25.170148835627682 282.24232853731013
C 34.71943637692378 27.547743638490765 283.88053023709557
C 31.92950701301974 29.47953759958567 285.59673174858716
C 30.56618373889339 26.18368179591267 286.95098165456113
C 33.8375451765034 24.890388055402504 288.38349820004134
C 34.521526083642975 28.324444408944792 289.87893403505234
C 31.075814850169465 28.216862917821075 291.47563590635093
C 31.57251947166979 24.595688198978753 292.56780785067144
C 35.0161732354836 25.36168559428346 294.0063475496697
C 33.77160734823752 28.317626145405384 296.0570958904614
C 30.94290373851869 26.37832723840729 297.69940254965303
C 33.43450754726411 23.703307959901743 298.7404225055514
C 35.75739605396384 26.279718461591415 300.32132584096416
C 32.7336630366128 27.701344799421353 302.13777903399375
C 31.364975065945995 24.388111916085993 303.434848882177
C 34.808918786721634 23.375557256620986 304.6956023665731
C 35.137873004376 26.74361921506982 306.4287553617376
C 31.765963116212543 26.327310492624687 308.1525864625244
C 32.599906391515226 22.775605760695854 309.2381914836546
C 35.92342998042059 23.687428139512384 310.84368420531575
C 35.46898194146526 27.208848343419234 312.19990586142046
C 31.716765543879212 26.969616783442092 312.76276167608296
C 31.85950712381334 24.979717497381625 316.0103140078527
C 34.38614803057542 27.38266901939032 317.54404048072365
C 32.108369080281754 30.291298118047475 316.62692051739253
C 29.218571311778206 28.519196378671904 318.3513018602297
C 31.408258047145093 28.236932951084828 321.4526175614354
C 32.07430264970842 31.980542730218193 321.3427194281686
C 28.329896439681026 32.56957433537622 321.0045092253478
C 27.790398058602964 30.504316408930492 324.15475165444803
C 30.36136150551173 32.72207195482146 325.8837860804289
C 28.91244724500989 36.15994081432229 325.12721210403015
C 25.178052779920474 35.71457385643633 325.7124615771528
C 25.196329132564223 33.313707478273535 328.6540224153518
C 27.81954360443939 31.48235059212329 330.6811798310299
C 29.883403109428922 28.484431165146393 329.5930811571093
C 29.44356909626617 24.85120222867902 330.59160311911836
C 32.04695797416005 22.415791687014018 331.8534036299889
C 31.311537192070716 20.40607872717647 328.70375037597523
C 31.712667346999233 23.291262352998032 326.2502046991421
C 35.118319073358 24.137545495404613 327.7499500471824
C 36.192685885988894 20.54639481125522 326.96780345000934
C 35.0054743728408 20.24345214356091 323.3589867045614
C 36.6667207680866 23.623886347992638 322.7754080658431
C 40.07388977502384 21.923479353600715 322.9144124913365
C 39.03425884972384 19.78695900575282 319.9305584360424
C 36.96974741026847 22.41739103598641 318.112060281077
C 39.99676632207396 24.723299414489006 318.08308542804866
C 41.961467185537735 21.931364611075225 316.3915495375208
C 39.26736703363087 21.856999871525456 313.7095998611357
C 40.219765474335496 25.475937390237288 313.0235191558519
C 43.75572241464257 24.35341081966418 312.14383507731884
C 42.86393994023305 21.580960852419008 309.70300713983846
C 40.8179664385428 24.090619254320206 307.71421339511363
C 44.1580860352367 25.695345508348264 306.8527741253422
C 45.53278578847649 22.250789782314605 305.9230493024743
C 42.814486333756754 21.044094980770705 303.55233084207106
C 42.49062222371389 24.355140911256502 301.69404820753107
C 45.87769938116466 23.84569882556983 299.9739817434297
C 44.608395285262795 20.326241642707537 299.25447005632685
C 41.417320345058606 21.754445801414747 297.73561829676163
C 43.379145466050566 24.15795875025228 295.53715979433167
C 45.44999603373561 21.26730434081679 294.18809108141943
C 42.48610402287831 19.072880778979314 293.24820176876403
C 40.3950781986851 21.70691469125251 291.44178391244515
C 42.812071616832796 24.31581026974078 290.04898128196345
C 44.16033607682524 22.512284267463887 286.98979918156584
C 46.419365602035384 25.479276981333175 286.1890970191735
C 48.079110330708055 25.370270299837713 289.61448980559686
C 49.08207571617368 21.739863539022306 289.0695588533147
C 50.888903242103396 22.682279082734595 285.8580933733479
C 52.61051932734655 25.67079851991455 287.4733960914226
C 53.72725503263247 23.238047026062652 290.1854079819697
C 55.137938541745015 20.773741377879183 287.6463306735425
C 56.838962856051104 23.739500801420384 285.9447556107105
C 59.19735426639456 23.750461770509308 288.9377616098248
C 59.335581955087285 19.934768129371992 288.7022895861687
439
Mode 7 - Frame 28
C 49.234504911881125 36.155035552896294 337.39598895507874
C 50.6659366145707 33.97784916527453 338.7410249104126
C 50.50441384562866 30.729978517869775 336.8065349004668
C 50.26760027501349 33.090986064944 333.83105401330323
C 47.52053993596205 34.00114956946312 331.3795288023848
C 49.03525987512085 32.25341343616294 328.3646874833084
C 47.91456393758303 31.418675860785317 324.8421388398732
C 47.00102295891089 27.740813573294353 324.38057127955074
C 46.715015095141645 27.251132865637622 328.1648097562577
C 43.36474509649427 25.4613054093827 328.14908342192183
C 41.5895843975423 23.420744302091773 330.83654490266326
C 43.165622988805154 20.17032823917587 329.53068782820907
C 40.99699323419899 17.51751432723488 331.1536698570495
C 43.27481110201478 14.469590045857144 330.86242181193444
C 41.901350040830714 10.955225501576031 330.4220321102167
C 45.40022580357647 9.524843773930435 329.8530689100706
C 48.96151541881199 10.703166917029705 330.4930719809335
C 51.76748732452403 11.116192497696233 329.4764671333251
C 51.32759396450677 9.323726831380664 326.1477889739169
C 48.57950695825379 11.817517771949616 325.3557345861324
C 50.81504587086446 14.699152204451725 326.43140066033163
C 53.74343481207757 13.284062113814393 324.4517242423811
C 51.89067041901636 11.872617231983998 321.4384570872542
C 49.39416924555272 14.729631459674515 321.06255907098506
C 52.26731021881861 17.2033485734415 321.34681260945604
C 54.329833985384475 15.691558741714408 318.52308525778534
C 51.16004979667116 15.032508650336796 316.520280275314
C 49.82634269390253 18.582140614539934 316.8450101347421
C 53.235841623174906 20.148864240191223 316.2090915420044
C 53.76695274254221 18.020634936040786 313.0917900095644
C 50.29202389935339 18.90227963600948 311.81475622298876
C 51.02059974733171 22.59420819879691 312.3229798263046
C 54.4071916253723 22.626689227354078 310.59523848893184
C 52.93773742220634 20.64922415667119 307.69006964434635
C 50.33966113376121 23.39546829871785 307.2196662969353
C 52.89885933787895 26.21147618987044 307.2926853735908
C 54.95374576410295 24.488322260356203 304.5963343625013
C 52.042113443659076 23.46665830410848 302.37610737567104
C 50.53146450316189 26.960987512009016 302.5229400824566
C 54.022263871172534 28.34781633630558 301.95031131250596
C 54.09998423007388 26.061684930340512 298.90522590476394
C 50.894266344377115 27.624678159616767 297.5546191596381
C 52.32787607175535 31.103597720378986 298.1299247732257
C 55.41567016253023 30.051394830857127 296.1579264373636
C 53.90357751166439 28.757207874373062 292.90705342278335
C 51.70950703652471 31.86289484166643 292.6271784008489
C 54.43193224695257 34.475509888538234 293.1211464222485
C 56.79856677102124 32.279035452070886 291.09132855663205
C 54.73656789476015 32.14085435360202 287.8868478638484
C 53.4984331177411 35.2047287699411 286.01150723003525
C 50.61623918657148 33.378208877285495 284.3144139869912
C 48.91438320835035 33.2891633962949 287.74660387699845
C 49.89574398197619 36.51687945113505 289.5355015104411
C 48.18497957831908 38.387350702431554 286.67947502947663
C 44.9198499570115 36.45993932247565 287.1576344134154
C 42.366468168713254 38.035334783431594 289.5435928405629
C 41.25752823922052 34.543497653873 290.60877215670035
C 44.685257655160385 33.78469872070167 292.10829332431683
C 44.652864800308116 37.01077311390578 294.09313465222203
C 41.83588891299864 35.14180677174095 295.872052064401
C 43.70481240387562 31.86729912806563 296.46399759809435
C 46.91855251827211 33.6326868531163 297.44903482084203
C 44.93348569360922 35.763970035106524 299.89086631446054
C 43.4032358289454 32.641595576089586 301.44807768563726
C 46.72507565523091 30.79757817411952 301.555930263849
C 48.528521911798016 33.68353006370192 303.2667137085905
C 45.59724598721849 33.87398120205444 305.6874428881106
C 45.87148900549595 30.13212058115316 306.33778751402946
C 49.62777012738393 30.60567189182074 306.74120237885154
C 49.32777424568471 33.555220953935894 309.14406991204095
C 47.298371835035155 31.333530961943158 311.4616438040796
C 49.291865546002484 28.128675206500432 311.03695365661576
C 52.47558407414252 30.091013334930516 311.7827896483717
C 50.974202093338455 31.520268403531844 314.9773059476151
C 49.86480955388974 28.013022120714425 315.92780367162095
C 53.320643842590066 26.44857503420032 315.64896996483185
C 54.95411385764833 29.49569044043081 317.2397118928457
C 52.645674552981994 29.59374319525161 320.2655219943571
C 52.73792608567322 25.795310254920825 320.5538014181216
C 56.54101144433176 25.58761186063575 320.6780007790311
C 56.7257433345211 28.774813896160488 322.77169630395616
C 54.53810205919795 27.331278118037805 325.5593714995271
C 54.4570852241526 23.520925168385567 325.34984064660927
C 58.257805785911394 23.323215387720747 324.9299827248504
C 59.742029220308844 26.42446766519133 326.5777844808581
C 56.83595127381616 27.127902593237692 328.97288400657567
C 57.42150238741293 30.863108166760018 328.5592178442499
C 54.899497215029236 33.3853849312038 329.85973797609546
C 52.714835276531076 35.746539778212366 327.84710612773597
C 52.19659879606222 39.360525262147874 328.86667457312
C 49.02468015452018 41.22050765612017 327.8727299803066
C 50.2851607384911 42.484069767327135 324.5093477788621
C 52.15441250477759 39.320152524576926 323.4977654246323
C 48.97798456493882 37.34448213620745 324.21311870654813
C 46.60940932787587 39.57259412812572 322.2287891977449
C 49.04612384910837 39.70891353492763 319.3065601416904
C 48.94500252010941 35.912421949070854 319.0407653492475
C 45.15827368429349 35.83701686591725 319.4000936882727
C 44.75025610531004 38.79644667265791 317.05388918720297
C 46.83906690458744 37.029318811312535 314.4315691765409
C 44.49906113009647 34.03849839558061 314.5430313439184
C 41.53912564414194 36.42460226727621 314.57603931107184
C 43.00178009586858 38.23291311919334 311.55658116366203
C 43.549358389292244 34.933511267305775 309.7301440636034
C 39.848504125855186 34.07090094446658 309.90145083130255
C 38.75403031139361 37.64866611945867 309.2208646360207
C 40.73281944115144 37.83381513663376 305.9781848555929
C 39.4260276220469 34.37012907909206 305.0761705307761
C 35.8262862021533 35.57455802744111 305.368563603189
C 36.82839615888719 38.865950818644265 303.7533986968145
C 38.2693762842943 36.932816036669955 300.8106886017845
C 35.09098637231833 34.88075141449679 300.3532227214754
C 33.226156875315056 38.19694593596598 300.3855339544535
C 35.32478144709995 39.66787125185766 297.5680026313439
C 34.8898765944277 36.44474061299733 295.6010573742789
C 31.10913957905985 36.79216552498907 295.85551228643743
C 31.416258020317375 40.30523098520363 294.40501602283314
C 33.51309667321399 39.030780212249326 291.4975418263909
C 30.873017309009164 36.404528261444106 290.7407268427419
C 28.107188332320227 39.001107869076584 291.0221493071588
C 29.895977869808327 41.077884303250784 288.3733323460678
C 30.348469899116417 37.99247142950487 286.18454126365566
C 26.618941691744197 37.25355397079131 286.44996827922023
C 25.2800451126048 40.78586646623594 285.9585124802888
C 27.9427090780588 42.05107962196776 283.50027758177447
C 29.07209550699188 38.95292131014357 281.5810359259688
C 30.070491264525504 40.96490866447681 278.5084830202833
C 32.35033652885288 43.52320421613 280.1880939181635
C 33.40616971930825 41.395692310295665 283.1814608450713
C 36.986049293832416 40.96752095038204 281.9431744478462
C 37.55000934631728 44.73188478004778 281.7394386271711
C 35.83671207332419 45.51021494991614 285.07152562434237
C 37.62586578871215 43.04449420146955 287.3748398579725
C 41.29740474930879 43.61929885959389 286.5436565763852
C 44.61779803037678 42.94263748170185 288.24147460476144
C 44.947906646114525 46.50052037177478 289.64011670378966
C 41.307923878101974 46.43789686188889 290.7601982560889
C 41.71044567916832 43.096877183676554 292.53672174529044
C 44.88994671113002 44.15204051934829 294.35680833518035
C 43.21731765097319 47.283729226198055 295.7307915454287
C 40.16916820029852 45.338975998947134 296.91951039972633
C 42.27379617900532 42.72937775696339 298.71728997070966
C 44.72517588552531 45.23660833915908 300.2026852001985
C 41.8007942700313 47.22455855772272 301.6066945567538
C 40.12608501954119 44.07660829457924 302.8918375516091
C 43.227384499284256 42.947671923819144 304.7847246413645
C 43.70956047971262 46.33290042881202 306.4472951322795
C 40.090957476718984 46.132940033579196 307.5958061125765
C 40.74669743159953 42.55985580986108 308.73266932403385
C 43.9812240458893 43.49505843869233 310.52150007501075
C 42.36140624784159 46.49942587659377 312.1959660772909
C 39.879753973564235 44.285712932594045 314.0377741454495
C 42.63490889291281 42.104427524052205 315.485696511169
C 44.600988277080134 45.146731653132925 316.62626775996404
C 41.507199880492976 46.84086914054246 318.1453545602482
C 41.478427253948446 44.38241966651066 321.07487360970475
C 45.25963330936273 44.55882847502974 321.28164536508086
C 45.02561472514551 48.334773979417726 321.2156584416798
C 41.98512834557213 49.36776879165831 323.275939027582
C 39.1444550332978 46.9211255962587 323.9765488746134
C 40.19481374961679 44.93987839877054 327.0585058931177
C 39.36932466645395 43.57129248956309 330.46466036932924
C 42.37246912597055 45.34914394669192 331.9721211272481
C 42.06514757400704 48.67877601631065 330.17110255273946
C 38.256233951739596 48.91708329468864 330.32938486325696
C 37.60556901348325 46.994194930753004 333.57945931525694
C 34.8601112721358 45.2963838605277 331.56661074755317
C 33.36633661207274 41.82390072091712 331.8611838583661
C 35.95459671359058 39.260963855502354 330.83711372851525
C 35.44192773775092 36.33552671108491 328.4708542143472
C 35.221178763221594 32.90355965568137 330.0863365882188
C 37.29903686819072 31.457251515820154 327.21630668023425
C 40.01948062749365 33.95861873511597 326.34319011109625
C 42.034381573674686 35.99829894669556 328.86299301011974
C 42.16801786283402 39.79161720757714 328.50170447082087
C 39.27405655259901 39.74085927017948 325.9859371899845
C 36.29822036639251 42.081446779508255 326.29657468990604
C 32.87605101099939 40.46983917546067 326.0090412088436
C 31.388538384695583 43.37513730981765 324.0606765201215
C 34.244583201548906 43.22040241463821 321.559866840828
C 33.270890868285974 39.63782269049012 320.7162829380577
C 29.671407084389227 40.662507234767055 320.0460271586336
C 31.00935428444351 43.15462804579703 317.501246237685
C 33.412100228008875 40.56391588966637 316.07939884934433
C 30.87103217507184 37.72382098101033 316.0306111164733
C 28.15684065657369 39.90878049562823 314.53253816733553
C 30.435560971322563 41.18542454225607 311.7663686517241
C 31.541714919912415 37.74016935897163 310.59218124299895
C 28.084172593339424 36.2241028490118 311.1294102559122
C 26.464311670067044 38.83241826008676 308.8717402019036
C 29.190493195375815 38.41577876117156 306.2586543299063
C 28.907704160139 34.61903681717065 306.33849481830845
C 25.106724741009156 34.743222069279156 306.1517078155955
C 25.445268660649287 36.84264605158224 303.00193610100877
C 28.219504748392815 34.66447238442214 301.5497728752925
C 26.092811326466638 31.54943689511584 302.04570587769376
C 23.170717560612022 33.17781569086292 300.23681212032926
C 25.439877384065234 34.57706565968945 297.5246200624985
C 27.27546744700618 31.315356937698674 296.83887370893177
C 23.932431180519632 29.53759639120975 296.4033731564101
C 22.733900448555865 32.215955274915245 293.9748288707717
C 26.077070382485974 32.10068883824066 292.13654594693884
C 25.886573444422474 28.319917389497185 291.75081930719483
C 22.21706439403383 28.502448368016655 290.7240729942713
C 22.96545522341111 31.14138099686928 288.08908795652
C 25.87696293285258 29.008389689372695 286.87849288245116
C 23.456594465536273 26.17143649807655 286.08584827190083
C 20.86539645413015 28.401101412679896 284.39067422475796
C 22.815647035832033 28.554113475980085 281.1188761347936
C 24.433161309612696 25.118868841148373 281.2154382977126
C 25.186432077490313 22.27151144676974 283.52818519780976
C 28.6059681774489 20.747887560897727 282.9487831206893
C 27.82549159127651 17.02222717932198 283.18433905004207
C 28.950826570358362 14.465330580767633 280.6179888777149
C 27.51074338543473 10.96071933491332 280.34454071243556
C 29.43550428732683 8.077958020401859 278.7952022485074
C 27.70100601269692 4.760630926556432 278.0746512402129
C 29.877751842541837 2.0066036716564573 276.63094358518595
C 29.34879341935021 -1.5549488121064592 275.4986030725109
C 32.48160075983776 -3.709700875309686 275.550413554319
C 33.2550946987602 -7.419278866360699 275.935742271853
C 37.06035881679355 -7.522503202456571 275.7198356033669
C 37.522687187728536 -4.023861566663371 277.15893973277423
C 38.75365701233891 -2.0866312709518002 274.11857530974623
C 35.749862354104486 0.23385230399961823 274.1483516188296
C 35.91569704390727 0.41476703245191604 277.9572067241684
C 39.53953533317314 1.5525885389590162 277.7515774973265
C 38.53030605677596 4.023886979736396 275.03605407728264
C 35.74755558865555 5.46021360172459 277.19670308195504
C 37.97658558532916 5.672338942277104 280.2819988150381
C 40.551915232866406 7.580933918533839 278.22384319427414
C 37.91222592007029 10.035725831893366 276.9885230280573
C 36.625566773528945 10.253550854670145 280.5651746484101
C 39.85180397924087 11.6861513815733 281.9973690818777
C 40.35150913086001 14.2593861573475 279.2222057116563
C 36.86530530043686 15.645249741110007 279.8746688833853
C 37.38797846643442 15.421752498131568 283.6429124772366
C 40.44558409200559 17.66701999452548 283.3290195873197
C 38.59487306918782 20.066073224321258 281.01529986894343
C 35.914302137997595 20.881333806853608 283.5981960775408
C 33.13922329432048 18.335766692704517 283.02351400832623
C 31.466452231324787 16.364831751670657 285.8020812992016
C 31.9686676718307 13.03494763658151 284.0309463454006
C 29.667452922028644 10.06059255143102 284.69728158482445
C 30.827780610626593 6.820316450782825 283.05484949718476
C 28.49749155203216 3.8100656179154093 283.0260795327018
C 28.449191806960833 0.3725710592282319 281.43090479311377
C 25.509845772628108 -0.1463858133884905 279.07049759985193
C 24.519330045721016 -3.3304057397622713 280.925571754807
C 23.700290385443044 -1.3182193040372394 284.0751827268884
C 21.48486284660826 1.4918522020290745 282.7168184802911
C 17.79726679889806 1.9307369669564578 281.9521804687696
C 16.99839993003495 3.780572695132199 278.73530430987415
C 14.057303265048827 5.799148137256916 280.0666079550017
C 15.207029668656483 9.349692124973942 280.7488186464049
C 18.842412308392902 8.235921832745333 280.76141261429257
C 20.25844032789413 11.400932320649067 279.1840321043248
C 18.36819861718584 13.78825335772556 281.4739621095854
C 20.55399613081622 16.1089067014727 283.524059746122
C 23.487765140144187 15.76532928831865 281.11417580452974
C 24.259909208443485 18.221246316176398 278.3241043416198
C 26.934192595037338 15.99933809069646 276.77385196512625
C 26.36669083041387 12.295703490906856 276.0964351959114
C 28.941996788686037 9.971932399792372 274.5336186461204
C 27.768199709835027 6.542754893506846 273.41475296277895
C 30.439095328833297 3.9375675421184373 272.6954133019818
C 29.871683875787802 0.4829464438528631 271.26632592824683
C 31.924126629411838 -2.216126867111769 269.5587337004804
C 30.778319243139844 -4.082495589244578 266.4492743582826
C 30.21539941324882 -7.8532010108951456 266.4421014256787
C 28.948731867466776 -8.708225350252814 262.97430963021964
C 29.797461038935435 -12.409709234306238 262.6843424292481
C 28.315156214318502 -12.50441948998174 259.18953473892594
C 25.988927060503627 -9.493524447354748 259.5728985198975
C 26.282149839211865 -6.266879434455962 261.59028396981466
C 25.571043134955158 -6.390682848018707 265.3158953185476
C 26.056234724903398 -4.118672306720412 268.3044924492351
C 27.836594305794243 -5.321517325760855 271.41493460310465
C 25.21558582172611 -7.2886208367674765 273.28897459092076
C 25.07167177501319 -5.111571021614447 276.4032018170808
C 24.2296504189703 -2.087870482625739 274.2366535810199
C 21.297084307155497 -3.5458121044187028 272.2846191795016
C 18.63201191071975 -2.951478047147306 274.9991491056208
C 19.62867567452425 0.718901487065395 275.0684995915878
C 19.75478145000978 0.9177803579696825 271.28123547756877
C 16.282541738718667 -0.5945350037193277 270.93830545444126
C 14.783987990305105 1.9751866474363164 273.3375256656522
C 17.004903939949322 4.911837175520689 272.4096078183542
C 14.026037159764355 7.199193117046252 271.73558194890586
C 13.240188487951304 7.110798390165106 275.4811229849225
C 16.608273628188005 8.554153720842256 276.5317275147327
C 15.876072939335408 12.221564874480212 275.82223855938514
C 18.292779429572867 12.572675949683306 272.88990427804924
C 16.326108899538113 15.174270474010427 270.9131451960221
C 18.06157122118637 18.533891947538883 271.1006243669555
C 20.87732593540748 17.140190427366548 273.2311678549822
C 24.575644454618743 17.16254518414999 272.3370612219719
C 25.889042429228187 13.657080135875992 271.60508107372067
C 28.789032728392332 11.906814032158614 269.9045951033495
C 29.694593629209443 8.285464400730987 269.284694626365
C 32.81535723649601 6.150534186087138 269.4936168122281
C 33.54825071974257 2.4704376858473034 269.07312765488257
C 36.19976496096742 -0.19441106924875737 268.5676810916481
C 36.259784688411735 -2.3533204083923023 265.4573206798784
C 38.57620143701884 -3.9118184705217613 262.8953444630261
C 38.877745520132905 -3.013802968423537 259.2244702506711
C 39.11899069525788 -6.618079547719796 257.98378486465595
C 35.35000725872975 -6.887870226588513 258.4879283552909
C 32.996997508325876 -5.636644029052442 255.81279574274728
C 31.419792542180687 -2.9114462922023154 257.9664747955745
C 34.20932003750133 -1.2958772381538999 259.97194499813014
C 32.649626158375455 -0.00787571016661007 263.20227204845776
C 29.166711740355467 -0.5019673896967816 261.78304570042377
C 27.88905742038484 -0.09590262523741293 265.3432382786667
C 28.772372390570123 3.602985051406633 265.56651757335015
C 27.178129450708994 4.103726735481323 262.1433021738807
C 23.934394318869106 2.553573762459937 263.3804941430933
C 23.971019300736398 4.563046670996017 266.61448411367553
C 24.70429653075948 7.865679184160342 264.86320992176854
C 21.97218685575724 7.311567726474466 262.2621264218197
C 19.418472919204874 6.6597784725753195 265.00016863618157
C 20.668715126863926 9.6745133034974 266.95399763511097
C 20.177633635214015 11.782824407813708 263.82225836941467
C 16.681741659431225 10.368852207245592 263.35166170490885
C 15.914467321696966 11.324814708672934 266.9682457688874
C 16.90896863528543 14.963690596300347 266.5083752827715
C 20.01745059788741 14.804869075025788 268.6679259069785
C 22.640750019251783 17.500166097646918 268.08684742231833
C 25.647325787867086 15.446594405349874 266.98259714573993
C 28.650943366511232 17.581023940589 267.88472411807487
C 31.138875041235853 15.858766307777348 265.5658772695994
C 31.844839044874142 12.699337193806354 263.60923790389637
C 32.231521685841976 9.423268590198669 265.4239253001051
C 35.4948929515666 7.978205168131209 266.69017706526444
C 36.25024573487585 4.682143334996916 264.9219309922531
C 39.19985958631262 2.7923304963547944 266.4113618526459
C 40.88103951113453 0.12676531317370918 264.2842915219996
C 42.657531438190475 -2.6864742712011296 266.0789822948338
C 44.080102294816825 -2.0793355855626316 269.53219832477095
C 42.92839446907845 1.2378804739807097 271.05007837015415
C 46.0961271683985 1.5440773130141878 273.13228151365666
C 48.07373101588645 1.8004380344973479 269.8682913546159
C 45.80325327941299 4.667059534361716 268.70381345106625
C 45.683049372439974 6.759931605489042 271.8887590594847
C 46.607657805935226 10.036436131656659 270.160690886612
C 43.36188364968137 9.88268318961244 268.1757277999439
C 41.19239889875207 9.053184780749731 271.19887011228246
C 42.61777028881146 12.020105114190633 273.10166339220956
C 42.40706117116668 14.195898254520754 269.9933402644342
C 38.761362786946194 13.249906360024879 269.47939290870136
C 37.942511903979934 13.90998038491205 273.1390729091787
C 39.53963806391023 17.338410831916132 272.73899479916173
C 37.24198586280678 18.176095610617203 269.8280735496665
C 34.15224967232075 16.88405695613434 271.65158314061216
C 35.20589763050105 18.958178148573996 274.67401956944013
C 34.09278066571866 22.15745657347066 272.94794958737936
C 30.443492581265645 21.080097016735493 272.87728183254586
C 29.829063249711854 23.35581849191547 275.88458207777273
C 31.67201861843549 26.713371058959986 275.7831930464608
C 34.7245146580407 27.1416142381088 278.0069019211951
C 33.173720139725 30.091923631787985 279.84123257339877
C 30.140542454697137 28.061456171400398 280.920126442689
C 32.246933696508094 25.182423723194415 282.23144670160445
C 34.72361422093111 27.561683425645167 283.8680461827088
C 31.934279136400598 29.493540850491613 285.5848016615581
C 30.571363454909914 26.19825666829545 286.93989864679565
C 33.843537617999466 24.905977460110073 288.37194806852796
C 34.526600351214604 28.339092400855854 289.8678656949666
C 31.080800172368946 28.230457946468373 291.4646593953584
C 31.577595775850106 24.60933704422537 292.55585432280844
C 35.0210481684509 25.37441118694918 293.9945358029348
C 33.77542451166132 28.328521939663595 296.0469017508238
C 30.946321590022894 26.38808302832214 297.6872658436257
C 33.437739414630116 23.712145633074247 298.72673956128455
C 35.76004622672259 26.287505637860093 300.3101368174908
C 32.73561493724902 27.707706979015466 302.12675843706927
C 31.366522837548523 24.393313754840946 303.4207265878188
C 34.81017587506314 23.3796978674705 304.68155600353003
C 35.13852815793427 26.74650866841753 306.41743403800945
C 31.76597447709374 26.3287549466747 308.13977707138554
C 32.59962720634922 22.776035211904347 309.2227315886083
C 35.92268150200291 23.686680228128104 310.8299206527346
C 35.46775543065803 27.207046946670772 312.1888461993287
C 31.715297669195174 26.96727067481906 312.7502063342547
C 31.856886774070247 24.974568202398938 315.9960484462785
C 34.383022251534854 27.376302583349442 317.5326313351325
C 32.10548323217986 30.285661962987685 316.61708841415947
C 29.21500713609315 28.51205146974295 318.33888815009493
C 31.40355828953088 28.227097018047136 321.4407226461377
C 32.06958915368886 31.970826992345174 321.33418133726104
C 28.325308063780113 32.560156880827975 320.9951118258793
C 27.784731120024013 30.492206235821357 324.14343147263287
C 30.35508978937037 32.70849698659154 325.87522745940595
C 28.906457137826347 36.147022276348004 325.1209864062779
C 25.171876156908294 35.70115231162003 325.70461894565767
C 25.189143333008158 33.29778062915472 328.6441589256834
C 27.811675707039623 31.464685560717385 330.6706518178702
C 29.875886505353815 28.467665370650252 329.5807354275727
C 29.43569334691747 24.83358289592775 330.5760164328198
C 32.03865442501529 22.397066735438766 331.83664631682495
C 31.304287306380917 20.390037526604832 328.6850381489555
C 31.706301426085403 23.277320720355487 326.2341246969008
C 35.111444390513014 24.122284576555472 327.73579659215204
C 36.18600623643558 20.531796342463466 326.95092298496576
C 35.00009194637225 20.23191619828593 323.34143375718065
C 36.661570465666955 23.612832696393536 322.761421550979
C 40.06868741537612 21.912243045427324 322.90011659504785
C 39.03017488148382 19.778347120567055 319.9140614580739
C 36.96643701131885 22.410494187335566 318.0972568354076
C 39.99345009794233 24.716430786935263 318.0713544195677
C 41.95885913751406 21.926015993238188 316.37813548337533
C 39.26571388910113 21.85391972818234 313.69524625152167
C 40.218297621072196 25.473492528856937 313.0125786061487
C 43.75457584284388 24.351744188235266 312.1331052363167
C 42.8636504214483 21.581280928881586 309.68976015410044
C 40.81828479437707 24.09258464070339 307.7024429704359
C 44.158675571393196 25.698011250081173 306.84329513182996
C 45.53377582441868 22.254242734414103 305.911329421331
C 42.816184643813244 21.04930203591254 303.53898415012435
C 42.49289471376107 24.361873910426382 301.683252718525
C 45.8805641418888 23.853800068383894 299.96382276316575
C 44.61166173137865 20.334791724497336 299.2413885021345
C 41.420917892419695 21.764165071754597 297.72279910009536
C 43.38341291592806 24.169368132716908 295.5266379528415
C 45.454925548082585 21.279839348232404 294.17605031330527
C 42.491616311177175 19.085854269480045 293.2345868154653
C 40.4009064595994 21.72172584590216 291.4298377579937
C 42.81759388678643 24.330961606417638 290.0382064072564
C 44.16639292484694 22.52913771392124 286.97815634223747
C 46.4254133557523 25.49674870863519 286.1798265867466
C 48.08462067607998 25.38589597541317 289.60571442434997
C 49.0879047417469 21.755922522660764 289.0586060760668
C 50.89540142942821 22.70067421764122 285.84820802731883
C 52.61651973085576 25.688109603793745 287.46618966731336
C 53.732720807164846 23.253433455753296 290.17665780389666
C 55.14411783784296 20.79107006255049 287.6360642164213
C 56.845442681189596 23.758135661207767 285.9371304297929
C 59.203097493404634 23.766952524490303 288.93075061765336
C 59.34156306810678 19.951472537511062 288.6923438030018
439
Mode 7 - Frame 29
C 49.2230150127974 36.129110199348496 337.3964831838669
C 50.653746856687064 33.95054843442474 338.74003507405786
C 50.49296846243404 30.704569874439596 336.80236278761015
C 50.25753024870584 33.06850671049518 333.829072291186
C 47.5114770645801 33.981034437661684 331.37731498926206
C 49.02731156520174 32.236102296696515 328.36141844283185
C 47.90793348200867 31.404658248286765 324.8376715034962
C 46.99465694977993 27.727217472533535 324.37247074589675
C 46.70718644094696 27.233958877377642 328.15610381840344
C 43.35704842565808 25.44404707661513 328.1377995596495
C 41.58098862172187 23.40082727701893 330.82259130638454
C 43.15749717813175 20.151592257419594 329.5142202171655
C 40.98819760687727 17.497220891000364 331.1337892229245
C 43.26561567661193 14.449259596111029 330.83972945141386
C 41.89189116612676 10.93556208160499 330.39464195044525
C 45.390827659732565 9.505366953770855 329.8256607614375
C 48.951975702438645 10.682554475519886 330.4685953093868
C 51.75845017117568 11.096545211001938 329.4537526183626
C 51.319971171475075 9.307728984130879 326.12296181490336
C 48.57241552616543 11.802599778564463 325.3324005025911
C 50.80769100228491 14.682946422210133 326.41214044726075
C 53.736867476885635 13.26985568936252 324.4323058527932
C 51.88545440126232 11.86156125720036 321.41672514251474
C 49.38919821627385 14.719057359675721 321.042732592379
C 52.2622702776201 17.192423926933284 321.3307728313352
C 54.326004500639065 15.683464336927262 318.5064233713602
C 51.15709247636381 15.026394050513138 316.50156773971804
C 49.82324219672868 18.575717091842822 316.82936263009697
C 53.232986064255805 20.14306464718736 316.19633722128685
C 53.765509354283544 18.017880411931984 313.07722776804957
C 50.29103455723445 18.90067645251444 311.79972166765305
C 51.019328913616796 22.592151106230673 312.31174660464706
C 54.40660912349599 22.62635231255158 310.5853453144069
C 52.938354607733686 20.65155873074512 307.67781485755705
C 50.3403156113465 23.398172358610296 307.2090751674487
C 52.89941692740432 26.214176392333112 307.28550672678637
C 54.955336531268586 24.49354185665037 304.58834964093813
C 52.04450213754179 23.473668951045447 302.36627829320236
C 50.533681588732264 26.96783723234588 302.51563692639303
C 54.024579031618586 28.355238562113207 301.9452708366806
C 54.10341374680015 26.071615539799797 298.89827185996944
C 50.89804678495501 27.63558973821206 297.547961709883
C 52.33135845948029 31.11405979036039 298.1265397383894
C 55.41974203450301 30.06342256837086 296.1545405890473
C 53.9086723335375 28.77177115028213 292.9021390111144
C 51.71463630873939 31.877611137260377 292.62415821499957
C 54.43685366368027 34.489925530952775 293.1210748467043
C 56.804155672942315 32.295149502230345 291.0901902889862
C 54.7431339067694 32.159501078584995 287.88496691370784
C 53.50555384246305 35.22490337305539 286.01174811063055
C 50.62394354031196 33.39961527877712 284.31225629904316
C 48.92103950056237 33.307659052030225 287.7438645354721
C 49.90173508762143 36.53404741859071 289.5357451869439
C 48.191833176879236 38.40673245676895 286.68070931006656
C 44.926766918316886 36.47854451214939 287.1563466338891
C 42.37259410007378 38.0517913412336 289.54281421278426
C 41.263135976630274 34.55889693636044 290.60448406594963
C 44.690508832393206 33.79951088604849 292.1047281307603
C 44.65733035725639 37.024082424537056 294.0920911708113
C 41.83985385324501 35.153633140314966 295.8686048058574
C 43.708814744053846 31.878884818243897 296.4586216454889
C 46.92219306855003 33.64359418207081 297.44608482116473
C 44.93618125036209 35.7727836174827 299.8889763451128
C 43.405564697265 32.649125716047934 301.44315141356464
C 46.72748282121972 30.80511682067772 301.5505872262227
C 48.53022210461929 33.689625738953545 303.2644095078222
C 45.59810340076477 33.877901028669115 305.6842934130318
C 45.872227624489945 30.135483445421897 306.33153659734984
C 49.62837132564904 30.608765259059822 306.73670398273464
C 49.32739577139694 33.556090604494266 309.1420804181485
C 47.29721241162038 31.332293752569274 311.4569296261997
C 49.290953611704964 28.127856315805086 311.03013269480255
C 52.47432090194802 30.089540327312697 311.77898183687506
C 50.97165915559909 31.515737732590097 314.974223413118
C 49.86196967138977 28.00763418072393 315.9210560269281
C 53.31788496469542 26.443405643377538 315.6421410310782
C 54.95063639272999 29.488998146506997 317.2364309202623
C 52.640945344125335 29.58409213498903 320.26135619039025
C 52.73307392016592 25.785381999048806 320.5460772156011
C 56.5361175529768 25.577536170931815 320.6716456120842
C 56.720002843799996 28.762684126680817 322.76842295168495
C 54.53120855379463 27.31647727460308 325.55381277279554
C 54.450199948219485 23.506296857224367 325.3406307789311
C 58.25105710769062 23.30893403843082 324.92216989421553
C 59.73468249101545 26.40859650607279 326.57349036569303
C 56.82766498767847 27.109863509561343 328.96805241058115
C 57.413435530282214 30.845457422342463 328.5581336961049
C 54.890944056610735 33.366621236700375 329.8598660611628
C 52.70709452301431 35.72965570870207 327.84852073845406
C 52.18848481152015 39.34267062911593 328.8712331187681
C 49.01701522924987 41.203639288842645 327.8777502709787
C 50.27872737860893 42.470348431313475 324.51602139006036
C 52.148344903759046 39.307368393766595 323.50227955936265
C 48.97163732392181 37.331048051739245 324.2145271683692
C 46.603832109523815 39.561060617491684 322.2313363926614
C 49.04166384066245 39.700156866977025 319.31019696541506
C 48.94060182088197 35.903905582888406 319.0408800535051
C 45.153740431958596 35.82820968670972 319.3985814015545
C 44.74670910550953 38.789873539662025 317.05492101519474
C 46.83659005112503 37.025252329252915 314.4317797758443
C 44.49658709937676 34.03434412739664 314.53959421416215
C 41.53662007704057 36.42039722352217 314.5735759461395
C 43.000421102432036 38.23148910000452 311.55629707360197
C 43.548694368258545 34.933750174363325 309.7271406628196
C 39.847768864460775 34.07094936575352 309.8963421545454
C 38.75352666458152 37.649318159886946 309.2184866574416
C 40.73339653338225 37.83732731125607 305.9766280035807
C 39.426991778975065 34.37446544872099 305.0711988732418
C 35.82712395744496 35.57868471437615 305.3633998001841
C 36.829668993763896 38.871351986680004 303.751248483159
C 38.271636493867476 36.94072723865094 300.80741901456355
C 35.09343718244675 34.889183035418036 300.347247892172
C 33.2285243385143 38.205282469015295 300.38136230403626
C 35.32782126046448 39.6781996115277 297.56555719655205
C 34.89384755635744 36.45659932193031 295.59614103100154
C 31.11298198629008 36.80381652431952 295.8493959091798
C 31.420531359645484 40.31733881533943 294.4006087230733
C 33.51842654320379 39.044574882702 291.4933663279368
C 30.878874804282173 36.41844609293396 290.73401675428715
C 28.112962226318956 39.01474237113985 291.01523270554884
C 29.902832303539284 41.09211692063275 288.3677927587101
C 30.35655030341475 38.007394701539816 286.1779218917705
C 26.626791469792618 37.268436894193755 286.44118485063336
C 25.28833316516726 40.8010854622857 285.9504406894606
C 27.952139053693568 42.0666832508671 283.4937871054249
C 29.08280307379393 38.96909115626741 281.5741747484522
C 30.082960692100375 40.9820623515833 278.5028697788936
C 32.361415106712876 43.54021342880977 280.1846262002576
C 33.41586334952063 41.411485268644476 283.1778137623942
C 36.99629062129689 40.984864163654166 281.94162268344974
C 37.55978137161114 44.74953897227518 281.7397130428841
C 35.844185265974 45.52673008589986 285.0707798538489
C 37.63228618130945 43.06136166070204 287.3749181401522
C 41.304050511660506 43.63772829684506 286.5462686005615
C 44.62376271555844 42.96041256070614 288.2451532414776
C 44.9523517475897 46.51737503818475 289.64641444164425
C 41.311871726367286 46.45310099964066 290.7649896396496
C 41.71462728527614 43.11111328131787 292.5393019129702
C 44.893394568230455 44.16521911425664 294.36130149396024
C 43.22009535195785 47.29559350133674 295.7372482303482
C 40.172018957212025 45.34974198483115 296.923660368503
C 42.27633996127437 42.738969692190686 298.72008120262933
C 44.727045226266554 45.2451098995551 300.2082162104201
C 41.80236132605841 47.231617963655765 301.61319865261834
C 40.12750994857186 44.082665728254376 302.8953387691257
C 43.22817420401863 42.95223176452416 304.78828105276233
C 43.709775330283975 46.33588208038163 306.4539944786911
C 40.0909782633618 46.13492466575711 307.6012780172363
C 40.74635650631817 42.560903953688936 308.7352751167809
C 43.980136866198734 43.49454104242117 310.52614392051765
C 42.359741172722316 46.49726237665483 312.2028262755546
C 39.877430090080814 44.28194262204818 314.04179518748276
C 42.632020450547735 42.09933024057125 315.4887778437394
C 44.59757219967359 45.14050804291877 316.6329804867764
C 41.50319153535051 46.83311183329109 318.1525136862061
C 41.47333010250223 44.371949097301155 321.07982369006083
C 45.254435431909634 44.54815806807345 321.2881735072963
C 45.02042593220979 48.32413021153525 321.22560199958326
C 41.97919965001347 49.35517224089645 323.28574542676233
C 39.138366643075365 46.90786579910759 323.98312418423535
C 40.18757234879771 44.92380646087864 327.0636357242637
C 39.36085585490419 43.552085153576826 330.468248198807
C 42.36344086861568 45.32854273376549 331.97841670278484
C 42.05676533050543 48.65982114779076 330.1803401862631
C 38.24780948423666 48.897978219370636 330.3375068356092
C 37.596003098442694 46.97210230619545 333.5855895744499
C 34.85125794436454 45.27615420029485 331.570222833629
C 33.357373131447126 41.80341840397384 331.8610939829357
C 35.945994917319936 39.241428335903684 330.8355916455313
C 35.43414178644357 36.31816019947207 328.46652601138135
C 35.212781273505506 32.88471055066354 330.0788396083614
C 37.2916864003855 31.44099718723187 327.2083354905855
C 40.012402066662936 33.943162558233674 326.33820888211994
C 42.026373773887705 35.980554943378856 328.860552278468
C 42.1601878557091 39.77420645859092 328.5028265936667
C 39.26718529217291 39.72577434231619 325.9859678933857
C 36.291269028918464 42.06607465963453 326.2977602535179
C 32.86918245947179 40.45476407049281 326.0075545756291
C 31.382409249834165 43.36187178673101 324.06132347639686
C 34.23940981828354 43.20945144895382 321.56139842209416
C 33.26605591808361 39.627643940891176 320.7141893107208
C 29.666808622125213 40.65297151899796 320.04356973417396
C 31.005759291766392 43.14747742252092 317.50161469909324
C 33.4091182553657 40.55809104886493 316.0782262205328
C 30.868083468725636 37.718042534378995 316.02591291726634
C 28.15447439986054 39.90448832856189 314.528853287239
C 30.43430909247267 41.18375052428361 311.76472195470376
C 31.540876616121704 37.739597741573334 310.5876931787146
C 28.083110565183514 36.22307491395482 311.1223660948007
C 26.46415931648087 38.833680291240654 308.86649007220154
C 29.191229766232084 38.41930871720024 306.2539350066897
C 28.908337605152827 34.622440627762046 306.3304316611808
C 25.107348125482346 34.74702415284002 306.14256287966225
C 25.447092650154275 36.8491738582154 302.9946348911952
C 28.22170216089892 34.67206274412665 301.5415737956521
C 26.094858874504105 31.556555773344822 302.0346065702542
C 23.17329977388688 33.18670472128979 300.2261497080363
C 25.443359130294127 34.58778781673947 297.51551802288554
C 27.279149582645722 31.326425539108648 296.8281811903006
C 23.93613104429501 29.549036770333693 296.39097000390893
C 22.738348579581796 32.22917553983444 293.96366944066244
C 26.081924274461965 32.11452817502281 292.1260136481052
C 25.89167025448424 28.334133833339163 291.7386868926408
C 22.2219212133431 28.517382913192026 290.7118165699392
C 22.971098653117263 31.156837304765148 288.0773130478989
C 25.882358179103473 29.023841748114705 286.8665200340075
C 23.461680999853233 26.186865675333777 286.07467935794335
C 20.87057978230387 28.416205559929338 284.379101560511
C 22.820219042524382 28.56627874811468 281.107204770924
C 24.43699309430324 25.130176038649854 281.2059362804234
C 25.19159799190748 22.284948668069298 283.520762222081
C 28.611360859985332 20.76114092643997 282.9420455219023
C 27.832094902694973 17.035803358993476 283.18368448260827
C 28.956288474646744 14.475923236525801 280.61994963342846
C 27.516734782687156 10.970633126395512 280.35258650108017
C 29.441123733133658 8.08628864621998 278.8058576368862
C 27.706869029942883 4.767654956454022 278.0914419342432
C 29.883250276006542 2.012174535450993 276.6500355208229
C 29.354271528836044 -1.5510631966486939 275.5232385875857
C 32.48766187671833 -3.704958799317408 275.5756305412177
C 33.26238085273193 -7.4137654214723 275.96568686888304
C 37.067515862025594 -7.5163912657185845 275.74680159896536
C 37.53017254519666 -4.015619132046494 277.18047770009724
C 38.758224142218374 -2.082412049339652 274.1363807802491
C 35.75384027712719 0.23734631010952767 274.16528877669157
C 35.922688753679914 0.42367984855536855 277.97372588114195
C 39.54611726225328 1.5620774376860806 277.7635159420443
C 38.53406708475374 4.02931935412648 275.04531540704943
C 35.75266112714655 5.46793046209817 277.20613598866345
C 37.98412060906796 5.684882829491355 280.2893318398212
C 40.55733379628735 7.591231644871205 278.22636399408333
C 37.91602612125006 10.043681128648466 276.9897338455153
C 36.63213333362931 10.265991152812335 280.56704459389
C 39.85923224554876 11.701231102543442 281.99474451518034
C 40.356148549598814 14.270929305027796 279.21575036755513
C 36.87004435754079 15.656859573099103 279.86896478659077
C 37.39532143821939 15.438004864581025 283.63660047482966
C 40.452631016022735 17.68363043049483 283.31776692929697
C 38.59982341376466 20.079724661769966 281.0034213712354
C 35.92050923010347 20.896813182630805 283.5868571458558
C 33.145468927557594 18.35005680161483 283.0169079596556
C 31.475030101867016 16.382023036041307 285.79910857952166
C 31.977140228654502 13.050615783857955 284.0324390624702
C 29.677008114339447 10.076923104578533 284.70496521303954
C 30.837175619017525 6.834826651317804 283.0661661505902
C 28.5075166905524 3.824209603303794 283.04363852404725
C 28.45887464007257 0.38451265107973404 281.45343749938576
C 25.517742438789515 -0.13837594110346835 279.0961623325004
C 24.529434133323296 -3.3199419783610433 280.95657736503904
C 23.71236917897748 -1.3034472106329194 284.1039343570094
C 21.495195315013866 1.5041451926314293 282.74330401645506
C 17.806912973723424 1.941130969074815 281.98093320272613
C 17.00504804819086 3.7861587011718743 278.7620411878101
C 14.06448746562372 5.8059193392016235 280.0927075724777
C 15.213858781571904 9.357663898672438 280.7689493152341
C 18.849543205342346 8.244758977867397 280.7802752745708
C 20.263602209268853 11.407809020161999 279.19721481274655
C 18.374456313339337 13.797906102995281 281.48522371470455
C 20.561330467726687 16.121661880830807 283.5303853265763
C 23.49325707334589 15.775433746161703 281.11848933337683
C 24.262886568268456 18.227969525349096 278.3245421660394
C 26.936542597375357 16.004549948650112 276.77539081807726
C 26.369286110203536 12.299759070979206 276.103554904762
C 28.943953677281957 9.974409593294599 274.5421151681676
C 27.77005740454604 6.543363538543559 273.4290497832847
C 30.44100404807834 3.9377789403760546 272.7113426478817
C 29.87330489580013 0.48101730487806876 271.28767511175187
C 31.925042388599245 -2.2199754883197973 269.5823277013186
C 30.777185528205614 -4.09105226514777 266.4765147071487
C 30.2152041681892 -7.8619016854452735 266.47529226556895
C 28.945929960397837 -8.722291253730214 263.0098428420589
C 29.795280350599484 -12.424027430588293 262.7247479049737
C 28.310191555093976 -12.524256448624003 259.2313126970766
C 25.983585588767703 -9.51331009971558 259.6120545025912
C 26.27767712603139 -6.283558580362289 261.62436323611433
C 25.569555560200158 -6.402080964486443 265.3506533988331
C 26.056608814101253 -4.125676108764751 268.3355368263863
C 27.83972559938758 -5.323708590075883 271.44625167201383
C 25.22067658139422 -7.288806183017655 273.3251604096234
C 25.07867583697181 -5.107381251667957 276.43634358267184
C 24.234220771884182 -2.0869561351601416 274.2661527030609
C 21.300464903231724 -3.5483481018726595 272.3185345853497
C 18.6373832151344 -2.950755533799908 275.0342719569494
C 19.633233681773206 0.719927302519052 275.09758515853457
C 19.756354772844197 0.9134882581949265 271.3099613215903
C 16.28423223955222 -0.600139434441146 270.9718853887147
C 14.786926839216093 1.9726512601126995 273.36855380563213
C 17.006417386063024 4.908494961044509 272.4347298432224
C 14.026507824670364 7.194210418672297 271.7597389601237
C 13.243518157360104 7.110896943040732 275.5059931810703
C 16.612050508222787 8.556522726041495 276.5519027314302
C 15.878481432934613 12.222755236163765 275.837764494954
C 18.292887250949157 12.570390206590396 272.90314947175125
C 16.324100347399018 15.168761131552115 270.9243173030529
C 18.0588478427909 18.52905646976564 271.10569628457057
C 20.87667777879662 17.139119681408463 273.23597409950685
C 24.57435176665401 17.16130102253897 272.33898661366385
C 25.888044029156056 13.655085644269295 271.61090739890875
C 28.787061410971774 11.902994301142666 269.91065898528956
C 29.692836956511854 8.280837920536678 269.2951093258221
C 32.814204949280786 6.146851252143074 269.50455837924915
C 33.547639330782815 2.4663130943842084 269.08870780386644
C 36.19939102532524 -0.19860959371326004 268.58494602311276
C 36.25744579059855 -2.361962717899408 265.4776947695367
C 38.572192331000295 -3.9236391203842356 262.9161957564779
C 38.87053747191214 -3.031008322900318 259.2437935662781
C 39.11166279815369 -6.6371050208317195 258.00833151433056
C 35.3431600946111 -6.906998022086783 258.51582667039906
C 32.98771096198141 -5.660281863948098 255.84075888280572
C 31.41158384878115 -2.9322478085282015 257.99166184592855
C 34.2023199778288 -1.3130462873804776 259.99250273218564
C 32.644920606239914 -0.02064603899565287 263.22218108089635
C 29.160986693800957 -0.5176258810637641 261.8064871864225
C 27.886096373379793 -0.10670447837013064 265.36707445640275
C 28.76876854708052 3.592726934969165 265.58435126711834
C 27.17171138522404 4.08821776481255 262.1617299910101
C 23.92931326706793 2.5391172289528448 263.4037164169952
C 23.96807688774776 4.553247262775566 266.6347783120394
C 24.699263280690843 7.853615265907634 264.8782610265525
C 21.96525189927706 7.2951588247260855 262.2801513220742
C 19.41384227492751 6.646688359791114 265.0211058790175
C 20.66494374369376 9.66448579145009 266.9696413416211
C 20.170969109367434 11.768245351412881 263.8353304727399
C 16.675024328138676 10.352793072549044 263.3694249428901
C 15.910328243350294 11.313662201418179 266.9852346693451
C 16.90360684056128 14.952109929157201 266.519434916565
C 20.01380852433816 14.797111799800911 268.67676106049436
C 22.635983920240907 17.4922636289425 268.0898549850365
C 25.642278236055244 15.437993737415844 266.986215880786
C 28.646082753617026 17.574657451584624 267.88339248824656
C 31.13258133865799 15.849592779128256 265.5649596044595
C 31.83758527898193 12.687440450596668 263.6120545876209
C 32.226378373281335 9.413849530982958 265.43080543146846
C 35.49103464239992 7.971261260018709 266.69644529663725
C 36.24572614504647 4.672785504244224 264.9322301490434
C 39.19699524647825 2.7858141537866032 266.4219392217811
C 40.87710955929785 0.1175922707164192 264.2973474193565
C 42.65580516631019 -2.6925972194843224 266.0946335001271
C 44.08102994947708 -2.0801492007769995 269.54578860940404
C 42.92966812998386 1.2389165612543034 271.05981665454635
C 46.09899798292349 1.5489278171421326 273.13898751725554
C 48.07386250331067 1.8012015696294301 269.87303722885133
C 45.801662979805165 4.665563943089683 268.7063487902389
C 45.683514067427396 6.762898016972896 271.88838800866256
C 46.60586976174786 10.03720059695379 270.1549760339867
C 43.358518717255045 9.879905077724557 268.17292788120096
C 41.191715075491175 9.054072113835934 271.1989336052568
C 42.61788257846343 12.02396436887263 273.0964508093674
C 42.40409829066807 14.195459161030543 269.98535265783096
C 38.75825246769579 13.247996815215796 269.47577903533977
C 37.94226167010968 13.912922951565063 273.135126631386
C 39.53834849991364 17.34114298328817 272.7292207474346
C 37.23808213586619 18.17458238419993 269.8192386617587
C 34.15017230626419 16.8845179439867 271.64689861683706
C 35.205947671752774 18.96297936128523 274.6656998983729
C 34.0909325640199 22.160166365012202 272.93721997710924
C 30.441785303804366 21.082004910883807 272.87030044859034
C 29.830009990779157 23.361773174889255 275.875498606222
C 31.672987176596344 26.71954446045232 275.77038910735
C 34.72572956701144 27.151579404030688 277.9922849739511
C 33.17630109225283 30.10418170540254 279.8259651638338
C 30.144187924349417 28.073942753537175 280.9073550614802
C 32.25136557494743 25.19590382638321 282.2194964277304
C 34.72820226852172 27.576991897372473 283.85433637555707
C 31.939519812965163 29.508919017188823 285.57170021331035
C 30.577051743785212 26.214262581393655 286.9277274486882
C 33.85011843018864 24.923097517867625 288.3592638819072
C 34.53217283813974 28.355178612757697 289.855710604692
C 31.08627498077864 28.245387809412037 291.4526051504599
C 31.58317049934931 24.62432600777652 292.54272713217733
C 35.026401749009615 25.38838624792957 293.98156431427884
C 33.77961646507529 28.340487542617268 296.03570669478034
C 30.950075024888193 26.398796695068608 297.6739374893959
C 33.44128860441694 23.72185103735323 298.7117131506848
C 35.76295660794294 26.296057401701553 300.2978491944733
C 32.73775848616932 27.714693832212127 302.1146557776406
C 31.368222577835457 24.39902633858618 303.40521768933183
C 34.81155639121604 23.38424502614814 304.66613049171025
C 35.13924763805348 26.749681824104254 306.4050011247742
C 31.765986953448415 26.330341225126524 308.12570998413935
C 32.59932060925608 22.776506828982185 309.2057537564792
C 35.92185953387896 23.685858882711997 310.8148057192551
C 35.46640849430902 27.20506867893339 312.1767006391009
C 31.71368567054333 26.964694212414926 312.73641824027044
C 31.854009144052405 24.968913321461027 315.9803822138164
C 34.37958956640572 27.369311055784788 317.5201019772033
C 32.1023140357217 30.279472419386494 316.6062909412357
C 29.211093010138317 28.50420503456273 318.32525559397885
C 31.398397083999882 28.216295339287523 321.4276598229744
C 32.06441286084069 31.96015731016914 321.32480492987287
C 28.320269176028436 32.549814769065584 320.9847917383141
C 27.778507770409323 30.478907019656823 324.13099981342987
C 30.348202281823216 32.69358915370679 325.86582850614343
C 28.899878889145285 36.13283532563298 325.1141494354571
C 25.165093079254035 35.68641296609909 325.6960062816923
C 25.18125199233533 33.280289994847344 328.6333269846324
C 27.803035296424774 31.445286079875682 330.6590901067755
C 29.867631879964307 28.449253418718197 329.5671775267617
C 29.42704431340638 24.814233600684627 330.55889936037954
C 32.0295355879835 22.37650326566625 331.81824367896866
C 31.296325587247107 20.372421313193325 328.6644886531051
C 31.699310464225785 23.262010221939914 326.2164658720594
C 35.1038947136922 24.10552525719521 327.7202534734677
C 36.17867074234212 20.515764516131746 326.9323851035045
C 34.994181043823644 20.21924759078614 323.3221573653869
C 36.65591447837641 23.600693736801535 322.74606176355974
C 40.06297425959403 21.899903495039187 322.88441704944313
C 39.025689926896995 19.768889673374723 319.8959447165469
C 36.96280157928787 22.402920168348796 318.080999906447
C 39.98980826878108 24.708887759947316 318.0584715964891
C 41.95599501706576 21.920142218837512 316.36340436400025
C 39.263898429796456 21.85053715951312 313.6794833259814
C 40.216685645944295 25.470807617609456 313.0005638534155
C 43.75331669435265 24.349913917813865 312.1213218808177
C 42.86333247612518 21.581632432202525 309.6752125068232
C 40.818634408129 24.09474299947508 307.6895168610627
C 44.15932299143513 25.700938728922743 306.83288543887136
C 45.534863067506556 22.258034716243195 305.898458818133
C 42.818049703243204 21.055020348218058 303.52432700693737
C 42.495390329314766 24.36926799229366 301.671397269342
C 45.883710180495065 23.862696735542542 299.95266631863564
C 44.615248895046186 20.34418130009814 299.22702252937717
C 41.424868666664295 21.77483863323438 297.70872124456156
C 43.38809936738344 24.18189775077715 295.5150830193847
C 45.46033906911948 21.293605111260064 294.1628273166979
C 42.497669826101124 19.100101568261223 293.2196350715589
C 40.40730697105898 21.73799124075299 291.4167186647361
C 42.82365836341864 24.347600584228378 290.02637359639704
C 44.17304446734683 22.547645923963646 286.96537034524124
C 46.432054911018795 25.51593590571844 286.16964593254175
C 48.09067205730979 25.403055865310872 289.5960774281587
C 49.0943060929438 21.77355826517789 289.0465778952217
C 50.90253764433873 22.72087548754003 285.83735208392994
C 52.62310928681207 25.707120384603982 287.4582756770559
C 53.73872324134622 23.2703306092962 290.1670484854647
C 55.150903851041186 20.810100172294902 287.62478974236814
C 56.852558731013865 23.778600193487758 285.9287565668924
C 59.20940462186602 23.785062430924583 288.9230512479106
C 59.34813143952756 19.969817075837643 288.6814214884262
439
Mode 7 - Frame 30
C 49.211 36.102 337.397
C 50.641 33.922 338.739
C 50.481 30.678 336.798
C 50.247 33.045 333.827
C 47.502 33.96 331.375
C 49.019 32.218 328.358
C 47.901 31.39 324.833
C 46.988 27.713 324.364
C 46.699 27.216 328.147
C 43.349 25.426 328.126
C 41.572 23.38 330.808
C 43.149 20.132 329.497
C 40.979 17.476 331.113
C 43.256 14.428 330.816
C 41.882 10.915 330.366
C 45.381 9.485 329.797
C 48.942 10.661 330.443
C 51.749 11.076 329.43
C 51.312 9.291 326.097
C 48.565 11.787 325.308
C 50.8 14.666 326.392
C 53.73 13.255 324.412
C 51.88 11.85 321.394
C 49.384 14.708 321.022
C 52.257 17.181 321.314
C 54.322 15.675 318.489
C 51.154 15.02 316.482
C 49.82 18.569 316.813
C 53.23 20.137 316.183
C 53.764 18.015 313.062
C 50.29 18.899 311.784
C 51.018 22.59 312.3
C 54.406 22.626 310.575
C 52.939 20.654 307.665
C 50.341 23.401 307.198
C 52.9 26.217 307.278
C 54.957 24.499 304.58
C 52.047 23.481 302.356
C 50.536 26.975 302.508
C 54.027 28.363 301.94
C 54.107 26.082 298.891
C 50.902 27.647 297.541
C 52.335 31.125 298.123
C 55.424 30.076 296.151
C 53.914 28.787 292.897
C 51.72 31.893 292.621
C 54.442 34.505 293.121
C 56.81 32.312 291.089
C 54.75 32.179 287.883
C 53.513 35.246 286.012
C 50.632 33.422 284.31
C 48.928 33.327 287.741
C 49.908 36.552 289.536
C 48.199 38.427 286.682
C 44.934 36.498 287.155
C 42.379 38.069 289.542
C 41.269 34.575 290.6
C 44.696 33.815 292.101
C 44.662 37.038 294.091
C 41.844 35.166 295.865
C 43.713 31.891 296.453
C 46.926 33.655 297.443
C 44.939 35.782 299.887
C 43.408 32.657 301.438
C 46.73 30.813 301.545
C 48.532 33.696 303.262
C 45.599 33.882 305.681
C 45.873 30.139 306.325
C 49.629 30.612 306.732
C 49.327 33.557 309.14
C 47.296 31.331 311.452
C 49.29 28.127 311.023
C 52.473 30.088 311.775
C 50.969 31.511 314.971
C 49.859 28.002 315.914
C 53.315 26.438 315.635
C 54.947 29.482 317.233
C 52.636 29.574 320.257
C 52.728 25.775 320.538
C 56.531 25.567 320.665
C 56.714 28.75 322.765
C 54.524 27.301 325.548
C 54.443 23.491 325.331
C 58.244 23.294 324.914
C 59.727 26.392 326.569
C 56.819 27.091 328.963
C 57.405 30.827 328.557
C 54.882 33.347 329.86
C 52.699 35.712 327.85
C 52.18 39.324 328.876
C 49.009 41.186 327.883
C 50.272 42.456 324.523
C 52.142 39.294 323.507
C 48.965 37.317 324.216
C 46.598 39.549 322.234
C 49.037 39.691 319.314
C 48.936 35.895 319.041
C 45.149 35.819 319.397
C 44.743 38.783 317.056
C 46.834 37.021 314.432
C 44.494 34.03 314.536
C 41.534 36.416 314.571
C 42.999 38.23 311.556
C 43.548 34.934 309.724
C 39.847 34.071 309.891
C 38.753 37.65 309.216
C 40.734 37.841 305.975
C 39.428 34.379 305.066
C 35.828 35.583 305.358
C 36.831 38.877 303.749
C 38.274 36.949 300.804
C 35.096 34.898 300.341
C 33.231 38.214 300.377
C 35.331 39.689 297.563
C 34.898 36.469 295.591
C 31.117 36.816 295.843
C 31.425 40.33 294.396
C 33.524 39.059 291.489
C 30.885 36.433 290.727
C 28.119 39.029 291.008
C 29.91 41.107 288.362
C 30.365 38.023 286.171
C 26.635 37.284 286.432
C 25.297 40.817 285.942
C 27.962 42.083 283.487
C 29.094 38.986 281.567
C 30.096 41.0 278.497
C 32.373 43.558 280.181
C 33.426 41.428 283.174
C 37.007 41.003 281.94
C 37.57 44.768 281.74
C 35.852 45.544 285.07
C 37.639 43.079 287.375
C 41.311 43.657 286.549
C 44.63 42.979 288.249
C 44.957 46.535 289.653
C 41.316 46.469 290.77
C 41.719 43.126 292.542
C 44.897 44.179 294.366
C 43.223 47.308 295.744
C 40.175 45.361 296.928
C 42.279 42.749 298.723
C 44.729 45.254 300.214
C 41.804 47.239 301.62
C 40.129 44.089 302.899
C 43.229 42.957 304.792
C 43.71 46.339 306.461
C 40.091 46.137 307.607
C 40.746 42.562 308.738
C 43.979 43.494 310.531
C 42.358 46.495 312.21
C 39.875 44.278 314.046
C 42.629 42.094 315.492
C 44.594 45.134 316.64
C 41.499 46.825 318.16
C 41.468 44.361 321.085
C 45.249 44.537 321.295
C 45.015 48.313 321.236
C 41.973 49.342 323.296
C 39.132 46.894 323.99
C 40.18 44.907 327.069
C 39.352 43.532 330.472
C 42.354 45.307 331.985
C 42.048 48.64 330.19
C 38.239 48.878 330.346
C 37.586 46.949 333.592
C 34.842 45.255 331.574
C 33.348 41.782 331.861
C 35.937 39.221 330.834
C 35.426 36.3 328.462
C 35.204 32.865 330.071
C 37.284 31.424 327.2
C 40.005 33.927 326.333
C 42.018 35.962 328.858
C 42.152 39.756 328.504
C 39.26 39.71 325.986
C 36.284 42.05 326.299
C 32.862 40.439 326.006
C 31.376 43.348 324.062
C 34.234 43.198 321.563
C 33.261 39.617 320.712
C 29.662 40.643 320.041
C 31.002 43.14 317.502
C 33.406 40.552 316.077
C 30.865 37.712 316.021
C 28.152 39.9 314.525
C 30.433 41.182 311.763
C 31.54 37.739 310.583
C 28.082 36.222 311.115
C 26.464 38.835 308.861
C 29.192 38.423 306.249
C 28.909 34.626 306.322
C 25.108 34.751 306.133
C 25.449 36.856 302.987
C 28.224 34.68 301.533
C 26.097 31.564 302.023
C 23.176 33.196 300.215
C 25.447 34.599 297.506
C 27.283 31.338 296.817
C 23.94 29.561 296.378
C 22.743 32.243 293.952
C 26.087 32.129 292.115
C 25.897 28.349 291.726
C 22.227 28.533 290.699
C 22.977 31.173 288.065
C 25.888 29.04 286.854
C 23.467 26.203 286.063
C 20.876 28.432 284.367
C 22.825 28.579 281.095
C 24.441 25.142 281.196
C 25.197 22.299 283.513
C 28.617 20.775 282.935
C 27.839 17.05 283.183
C 28.962 14.487 280.622
C 27.523 10.981 280.361
C 29.447 8.095 278.817
C 27.713 4.775 278.109
C 29.889 2.018 276.67
C 29.36 -1.547 275.549
C 32.494 -3.7 275.602
C 33.27 -7.408 275.997
C 37.075 -7.51 275.775
C 37.538 -4.007 277.203
C 38.763 -2.078 274.155
C 35.758 0.24099999999999996 274.183
C 35.93 0.43299999999999994 277.991
C 39.553 1.572 277.776
C 38.538 4.035 275.055
C 35.758 5.476 277.216
C 37.992 5.698 280.297
C 40.563 7.602 278.229
C 37.92 10.052 276.991
C 36.639 10.279 280.569
C 39.867 11.717 281.992
C 40.361 14.283 279.209
C 36.875 15.669 279.863
C 37.403 15.455 283.63
C 40.46 17.701 283.306
C 38.605 20.094 280.991
C 35.927 20.913 283.575
C 33.152 18.365 283.01
C 31.484 16.4 285.796
C 31.986 13.067 284.034
C 29.687 10.094 284.713
C 30.847 6.85 283.078
C 28.518 3.839 283.062
C 28.469 0.39699999999999996 281.477
C 25.526 -0.13000000000000006 279.123
C 24.54 -3.309 280.989
C 23.725 -1.288 284.134
C 21.506 1.517 282.771
C 17.817 1.952 282.011
C 17.012 3.792 278.79
C 14.072 5.813 280.12
C 15.221 9.366 280.79
C 18.857 8.254 280.8
C 20.269 11.415 279.211
C 18.381 13.808 281.497
C 20.569 16.135 283.537
C 23.499 15.786 281.123
C 24.266 18.235 278.325
C 26.939 16.01 276.777
C 26.372 12.304 276.111
C 28.946 9.977 274.551
C 27.772 6.544 273.444
C 30.443 3.938 272.728
C 29.875 0.479 271.31
C 31.926 -2.224 269.607
C 30.776 -4.1 266.505
C 30.215 -7.871 266.51
C 28.943 -8.737 263.047
C 29.793 -12.439 262.767
C 28.305 -12.545 259.275
C 25.978 -9.534 259.653
C 26.273 -6.301 261.66
C 25.568 -6.414 265.387
C 26.057 -4.133 268.368
C 27.843 -5.326 271.479
C 25.226 -7.289 273.363
C 25.086 -5.103 276.471
C 24.239 -2.086 274.297
C 21.304 -3.551 272.354
C 18.643 -2.95 275.071
C 19.638 0.721 275.128
C 19.758 0.909 271.34
C 16.286 -0.606 271.007
C 14.79 1.97 273.401
C 17.008 4.905 272.461
C 14.027 7.189 271.785
C 13.247 7.111 275.532
C 16.616 8.559 276.573
C 15.881 12.224 275.854
C 18.293 12.568 272.917
C 16.322 15.163 270.936
C 18.056 18.524 271.111
C 20.876 17.138 273.241
C 24.573 17.16 272.341
C 25.887 13.653 271.617
C 28.785 11.899 269.917
C 29.691 8.276 269.306
C 32.813 6.143 269.516
C 33.547 2.462 269.105
C 36.199 -0.20299999999999999 268.603
C 36.255 -2.371 265.499
C 38.568 -3.936 262.938
C 38.863 -3.049 259.264
C 39.104 -6.657 258.034
C 35.336 -6.927 258.545
C 32.978 -5.685 255.87
C 31.403 -2.954 258.018
C 34.195 -1.331 260.014
C 32.64 -0.03399999999999993 263.243
C 29.155 -0.5339999999999999 261.831
C 27.883 -0.11799999999999994 265.392
C 28.765 3.582 265.603
C 27.165 4.072 262.181
C 23.924 2.524 263.428
C 23.965 4.543 266.656
C 24.694 7.841 264.894
C 21.958 7.278 262.299
C 19.409 6.633 265.043
C 20.661 9.654 266.986
C 20.164 11.753 263.849
C 16.668 10.336 263.388
C 15.906 11.302 267.003
C 16.898 14.94 266.531
C 20.01 14.789 268.686
C 22.631 17.484 268.093
C 25.637 15.429 266.99
C 28.641 17.568 267.882
C 31.126 15.84 265.564
C 31.83 12.675 263.615
C 32.221 9.404 265.438
C 35.487 7.964 266.703
C 36.241 4.663 264.943
C 39.194 2.779 266.433
C 40.873 0.10800000000000005 264.311
C 42.654 -2.699 266.111
C 44.082 -2.081 269.56
C 42.931 1.24 271.07
C 46.102 1.554 273.146
C 48.074 1.802 269.878
C 45.8 4.664 268.709
C 45.684 6.766 271.888
C 46.604 10.038 270.149
C 43.355 9.877 268.17
C 41.191 9.055 271.199
C 42.618 12.028 273.091
C 42.401 14.195 269.977
C 38.755 13.246 269.472
C 37.942 13.916 273.131
C 39.537 17.344 272.719
C 37.234 18.173 269.81
C 34.148 16.885 271.642
C 35.206 18.968 274.657
C 34.089 22.163 272.926
C 30.44 21.084 272.863
C 29.831 23.368 275.866
C 31.674 26.726 275.757
C 34.727 27.162 277.977
C 33.179 30.117 279.81
C 30.148 28.087 280.894
C 32.256 25.21 282.207
C 34.733 27.593 283.84
C 31.945 29.525 285.558
C 30.583 26.231 286.915
C 33.857 24.941 288.346
C 34.538 28.372 289.843
C 31.092 28.261 291.44
C 31.589 24.64 292.529
C 35.032 25.403 293.968
C 33.784 28.353 296.024
C 30.954 26.41 297.66
C 33.445 23.732 298.696
C 35.766 26.305 300.285
C 32.74 27.722 302.102
C 31.37 24.405 303.389
C 34.813 23.389 304.65
C 35.14 26.753 306.392
C 31.766 26.332 308.111
C 32.599 22.777 309.188
C 35.921 23.685 310.799
C 35.465 27.203 312.164
C 31.712 26.962 312.722
C 31.851 24.963 315.964
C 34.376 27.362 317.507
C 32.099 30.273 316.595
C 29.207 28.496 318.311
C 31.393 28.205 321.414
C 32.059 31.949 321.315
C 28.315 32.539 320.974
C 27.772 30.465 324.118
C 30.341 32.678 325.856
C 28.893 36.118 325.107
C 25.158 35.671 325.687
C 25.173 33.262 328.622
C 27.794 31.425 330.647
C 29.859 28.43 329.553
C 29.418 24.794 330.541
C 32.02 22.355 331.799
C 31.288 20.354 328.643
C 31.692 23.246 326.198
C 35.096 24.088 327.704
C 36.171 20.499 326.913
C 34.988 20.206 323.302
C 36.65 23.588 322.73
C 40.057 21.887 322.868
C 39.021 19.759 319.877
C 36.959 22.395 318.064
C 39.986 24.701 318.045
C 41.953 21.914 316.348
C 39.262 21.847 313.663
C 40.215 25.468 312.988
C 43.752 24.348 312.109
C 42.863 21.582 309.66
C 40.819 24.097 307.676
C 44.16 25.704 306.822
C 45.536 22.262 305.885
C 42.82 21.061 303.509
C 42.498 24.377 301.659
C 45.887 23.872 299.941
C 44.619 20.354 299.212
C 41.429 21.786 297.694
C 43.393 24.195 295.503
C 45.466 21.308 294.149
C 42.504 19.115 293.204
C 40.414 21.755 291.403
C 42.83 24.365 290.014
C 44.18 22.567 286.952
C 46.439 25.536 286.159
C 48.097 25.421 289.586
C 49.101 21.792 289.034
C 50.91 22.742 285.826
C 52.63 25.727 287.45
C 53.745 23.288 290.157
C 55.158 20.83 287.613
C 56.86 23.8 285.92
C 59.216 23.804 288.915
C 59.355 19.989 288.67
