26
Mode 8 - Frame 1
C -2.2101668732088835 0.21642532665939163 1.476687436988045
C -2.83895267733107 0.1267187221777304 0.5915562556856024
C -2.6330692794967616 0.9619687105724679 2.1493486534481905
C -2.1117853196615513 -0.7396350510378235 1.9956921901103697
C -0.8636885916240732 0.6984432504212214 0.9908253610216291
C -0.45557863980273255 1.7895703956531672 1.3590447620242412
C -0.17161954504853527 -0.1275875790547617 0.2034684475453689
C 4.039730333745316 2.5123463369044514 -1.5099430213817695
C 1.2235705798596561 0.08106697305218383 -0.17999008261246394
C 1.8443250188009386 0.0641450199105193 0.7182162090955236
C 1.410980779424705 1.4514088128184979 -0.8616682216622773
C 2.5303572105595786 1.8202962281470898 -1.2428365372293135
C 1.6579781997511385 -1.0867686778226 -1.0773252756613552
C 1.535857426636417 -2.0321291205554144 -0.5487825451046031
C 1.0434341109357512 -1.0978383262592133 -1.981429967014477
C 2.7049734473146323 -0.9733461593289578 -1.357873183298521
C 1.2097479443870955 2.464020076808572 -0.07162452404574257
C 0.22172087422403827 2.360652613844636 -0.09202016819825706
C 1.7953303669789562 3.7654385581502 0.046073422468792494
C 2.480842301709929 3.9306711087849466 -0.8133982509451433
C 0.9752579572255204 4.515612791974761 0.031064210232614648
C 2.3881072432633585 3.8796398245554715 0.9816910546545451
C 0.10901671221856837 1.098379468681271 0.8163553886719279
C 1.3247589509649962 2.3848662221523615 -0.37110391954439714
C -1.0073682196694902 -1.5388192064855797 -0.1822010431201221
C -0.9407286970185571 -1.3913209928452717 -0.12936553610496987
26
Mode 8 - Frame 2
C -2.1960923169065176 0.1828357934156784 1.5209638239751988
C -2.847549253565659 0.04138069970774394 0.6531218965869575
C -2.627764717627661 0.9428601935893526 2.1740790892318733
C -2.0292064183132674 -0.750093275639765 2.085724823465172
C -0.9076766310595269 0.7340683987567526 0.9190581350572615
C -0.5554680072927147 1.8627986228350408 1.2350800659981027
C -0.19271819100099133 -0.10511929577930813 0.16741469967877692
C 4.075940310881985 2.4830118515114887 -1.4574561463390736
C 1.2142725307084499 0.096795614231053 -0.1790977051655371
C 1.8174770815339314 0.09960735219902016 0.7338309816701682
C 1.3993884729430435 1.454371201379113 -0.897798660755607
C 2.5254294203973044 1.821571010422576 -1.2634482658827175
C 1.678992533062609 -1.0953856367614259 -1.0333294176951326
C 1.5603437714198516 -2.0297941353037303 -0.48540586011411957
C 1.0752013003953864 -1.132266650623223 -1.9478164931111965
C 2.727770707438269 -0.9800386650074518 -1.3042222975177569
C 1.1731676871582026 2.4822088849921546 -0.14011871269808773
C 0.18798361553251375 2.380402609362025 -0.18001861348449277
C 1.8300729225884893 3.7505572259813182 0.09013321529088877
C 2.576321015738616 3.921749934880978 -0.7238873474750084
C 1.0338386477719936 4.528630639618802 0.0607707654154451
C 2.394903865891772 3.821917678418126 1.0531177518132415
C 0.06867735732287185 1.1348527252257261 0.768261503497789
C 1.2931648713398223 2.4042675291524067 -0.43822344081656633
C -0.9899194907034414 -1.5595125130816094 -0.1517917486002871
C -0.9263785728659668 -1.4084311602709776 -0.10411596811942983
26
Mode 8 - Frame 3
C -2.183276124497337 0.15224939966104073 1.56128159191189
C -2.8553772356857174 -0.03632750595771175 0.7091831380666352
C -2.62293442073586 0.9254601118355479 2.19659845087692
C -1.9540106490199642 -0.7596164617265884 2.1677079089274365
C -0.9477318317348485 0.7665084093592183 0.8537074016577418
C -0.6464265658348207 1.9294797337122829 1.1221986818830345
C -0.21193047025802142 -0.08465983436710206 0.13458440934467686
C 4.108912862495392 2.4563000745329635 -1.4096619654745084
C 1.205805792262717 0.11111800474573344 -0.17828511251140816
C 1.7930295378663756 0.13189910364921043 0.7480496842312284
C 1.3888325998381708 1.4570687316577207 -0.9306987855837295
C 2.5209422091833247 1.8227318182357288 -1.2822171616569618
C 1.698128037819173 -1.1032321792292286 -0.9932670975204437
C 1.5826408655093662 -2.0276679140847245 -0.42769549456906164
C 1.1041282806615513 -1.163616841698209 -1.9172082991596058
C 2.7485297328647076 -0.9861328138127461 -1.255368176626313
C 1.1398579610857733 2.4987714863535406 -0.2024890412413453
C 0.1572627040195746 2.398386816977064 -0.26014938153630884
C 1.8617092504351846 3.7370063891176906 0.13025375409762038
C 2.6632632641253053 3.9136263763962393 -0.6423793455922093
C 1.0871818143611982 4.540484600523515 0.08782134653913448
C 2.4010928228625636 3.7693562963557534 1.1181584020669348
C 0.03194462323884653 1.1680650172241993 0.7244675484447854
C 1.2643955236766835 2.4219342234453096 -0.49934200686980523
C -0.9740308002949969 -1.5783556931591436 -0.12410125795738708
C -0.9133114503020885 -1.4240115589116278 -0.08112388832669357
26
Mode 8 - Frame 4
C -2.172278425088538 0.12600291757235732 1.5958786608731699
C -2.862094503309773 -0.10300967334571429 0.7572898348602909
C -2.6187894959738665 0.9105289323785511 2.215922534219556
C -1.889484427729094 -0.7677884003689827 2.2380583922639707
C -0.9821035891743486 0.7943454981008492 0.79762930146024
C -0.724478989953171 1.9866994437680876 1.025334067829843
C -0.22841671402534902 -0.06710337145724517 0.10641241776788041
C 4.137206929860174 2.4333784388001645 -1.3686493138337799
C 1.1985404016204546 0.12340818740427881 -0.17758781884831465
C 1.7720508627688738 0.1596089697697015 0.7602508912478808
C 1.379774502417469 1.4593835086369589 -0.9589307028193413
C 2.5170916895797175 1.8237279187149393 -1.2983229337435573
C 1.7145484006406293 -1.1099653736682773 -0.9588892307692634
C 1.6017742188999207 -2.025843382968409 -0.37817366836880656
C 1.1289508038895628 -1.1905187456992863 -1.8909431101097995
C 2.766343254569957 -0.9913622621990789 -1.2134459801352266
C 1.111274561036972 2.5129840157370578 -0.2560096270321333
C 0.1309007909336252 2.4138192405191727 -0.32891037327975486
C 1.8888566911841975 3.7253782841543863 0.16468157882342813
C 2.7378692534203033 3.906655471817672 -0.5724365360978119
C 1.1329561046442729 4.550656599715748 0.11103371340548787
C 2.4064036270582 3.724252862981973 1.1739704168998715
C 0.0004239067091786064 1.1965648081460982 0.6868875294954453
C 1.2397082665191055 2.4370941857162656 -0.5517884430881683
C -0.960396560457401 -1.594525209329184 -0.10033977850623302
C -0.9020984252859746 -1.437381250583578 -0.06139416094194325
26
Mode 8 - Frame 5
C -2.163579870917102 0.10524344436149805 1.6232429729302746
C -2.8674074796096285 -0.15575147176486823 0.795339493476499
C -2.6155110964433357 0.8987192194083813 2.231206784090469
C -1.8384478599422303 -0.7742519386349629 2.293701619773896
C -1.0092896926439296 0.8163630506264642 0.7532747165359668
C -0.7862140141767087 2.0319569771023844 0.9487196722806404
C -0.24145639434056726 -0.053217208724154044 0.08412997616450754
C 4.159585926462492 2.4152487297848264 -1.3362106410941252
C 1.1927938912159421 0.1331290222496712 -0.17703629925532002
C 1.7554579250100384 0.18152589644433786 0.769901351425611
C 1.3726100630037965 1.461214365455303 -0.981260542207477
C 2.514046147770005 1.8245157774894458 -1.311061682618251
C 1.7275359728780373 -1.115290947172134 -0.931698295181925
C 1.616907612236332 -2.024400282719639 -0.3390047229503924
C 1.1485840067026747 -1.2117966203319503 -1.8701688407576145
C 2.780432736176737 -0.9954984581782899 -1.180287909196176
C 1.0886667187523023 2.5242253174093645 -0.29834136365113
C 0.11005001837501521 2.426025409026577 -0.38329640342379656
C 1.9103287714069224 3.7161811150761404 0.19191202832476228
C 2.796878343892163 3.9011418831254705 -0.5171157553895576
C 1.169160962486433 4.558702072020133 0.12939337419715144
C 2.410604170851266 3.688578614765505 1.2181145434480916
C -0.02450718570060631 1.2191065203709661 0.6571638738067928
C 1.2201820514674775 2.449084852868465 -0.5932705885429905
C -0.9496126528958981 -1.607314376145153 -0.08154580091906904
C -0.893229560816893 -1.4479559156058657 -0.045789069725628295
26
Mode 8 - Frame 6
C -2.157560630540614 0.09087826862278203 1.6421785763377708
C -2.871083962026491 -0.19224783154102845 0.821669161251212
C -2.6132425039352576 0.8905471140511247 2.2417832054283306
C -1.8031314885722822 -0.778724588886808 2.332205715409199
C -1.0281019789685732 0.8315987942387549 0.7225821550830256
C -0.8289335217093521 2.063274362338725 0.8957039119575853
C -0.2504796146025728 -0.04360823811246643 0.06871093415564344
C 4.175071782764484 2.402703302766915 -1.3137636729122892
C 1.1888174111286727 0.139855662153426 -0.17665465778512277
C 1.7439759155916799 0.19669200880835544 0.7765792933466061
C 1.3676524019783254 1.4624812848843654 -0.9967123826164175
C 2.511938688545402 1.8250609613502364 -1.31987666382792
C 1.7365231353033364 -1.118976146623743 -0.9128826651201806
C 1.627379643611721 -2.023401683744048 -0.3119005291820572
C 1.1621698239273948 -1.2265205203721834 -1.8557934263597455
C 2.7901823997299973 -0.9983606301384172 -1.157343130619275
C 1.0730225054240676 2.53200409254563 -0.3276341510778759
C 0.09562166515766343 2.434471854363809 -0.420930541478012
C 1.9251870581631536 3.709816842304586 0.21075500129222063
C 2.8377115551302325 3.897326580602619 -0.4788347870429551
C 1.1942140618697932 4.564269391690509 0.14209792363810253
C 2.4135108703215593 3.6638926875374445 1.2486614715544166
C -0.041759045619546215 1.23470497290744 0.6365956477623465
C 1.206670267816731 2.4573821752097507 -0.6219754744244774
C -0.9421503861178557 -1.616164245647961 -0.06854071219996447
C -0.887092468829676 -1.455273390374144 -0.034990632045437314
26
Mode 8 - Frame 7
C -2.154483773647047 0.08353521746775222 1.6518578943636448
C -2.8729632706370243 -0.21090368662301232 0.8351281053589114
C -2.61208286682815 0.8863697765250061 2.247189557869377
C -1.7850788085148688 -0.7810108748463552 2.351887865427467
C -1.0377182609645268 0.8393868538326552 0.7068930293161597
C -0.850770465080984 2.0792828794647935 0.8686038299846384
C -0.2550920167877012 -0.038696417746869785 0.06082917786584796
C 4.182987692536371 2.3962904531067513 -1.3022894495103219
C 1.1867847526197288 0.1432941206737498 -0.17645957400128945
C 1.7381066534221747 0.20444447497636523 0.7799928589045984
C 1.3651181929173657 1.4631288964657423 -1.0046109044741354
C 2.5108614179867343 1.825339643146512 -1.3243826203947284
C 1.7411171057933508 -1.12085991112352 -0.9032646739051385
C 1.632732635004601 -2.022891229608679 -0.2980456703918288
C 1.169114490159019 -1.234046940735116 -1.8484451415062713
C 2.7951661381483848 -0.9998236874305786 -1.1456144413295974
C 1.0650256482439762 2.5359803713456954 -0.34260775393943305
C 0.08824631955208836 2.4387894263390892 -0.4401679950208016
C 1.932782173023674 3.706563615099009 0.22038696938850916
C 2.8585842798639214 3.8953763112772175 -0.45926669306721774
C 1.2070204621331917 4.567115240142317 0.14859211195457958
C 2.4149966887543357 3.6512739747738796 1.2642761538801763
C -0.05057768398557477 1.2426784385299963 0.6260817815375477
C 1.1997634453491353 2.461623519938839 -0.6366485594782836
C -0.938335896989403 -1.6206880360739504 -0.061892897131283514
C -0.8839553696931995 -1.4590138661278997 -0.02947079144464762
26
Mode 8 - Frame 8
C -2.154483773647047 0.08353521746775222 1.6518578943636448
C -2.8729632706370243 -0.21090368662301237 0.8351281053589115
C -2.61208286682815 0.8863697765250061 2.2471895578693775
C -1.7850788085148688 -0.7810108748463552 2.351887865427467
C -1.0377182609645268 0.8393868538326552 0.7068930293161597
C -0.850770465080984 2.0792828794647935 0.8686038299846383
C -0.2550920167877012 -0.03869641774686977 0.06082917786584793
C 4.182987692536371 2.3962904531067513 -1.3022894495103219
C 1.1867847526197288 0.1432941206737498 -0.17645957400128945
C 1.7381066534221745 0.20444447497636525 0.7799928589045984
C 1.3651181929173657 1.4631288964657423 -1.0046109044741354
C 2.5108614179867343 1.825339643146512 -1.3243826203947284
C 1.7411171057933508 -1.12085991112352 -0.9032646739051385
C 1.632732635004601 -2.022891229608679 -0.2980456703918287
C 1.169114490159019 -1.234046940735116 -1.8484451415062713
C 2.7951661381483848 -0.9998236874305786 -1.1456144413295974
C 1.0650256482439762 2.5359803713456954 -0.3426077539394331
C 0.08824631955208834 2.4387894263390892 -0.4401679950208017
C 1.932782173023674 3.706563615099009 0.22038696938850919
C 2.8585842798639214 3.8953763112772175 -0.4592666930672177
C 1.2070204621331917 4.567115240142317 0.1485921119545796
C 2.4149966887543357 3.6512739747738796 1.2642761538801763
C -0.0505776839855748 1.2426784385299963 0.6260817815375477
C 1.199763445349135 2.461623519938839 -0.6366485594782836
C -0.938335896989403 -1.6206880360739504 -0.061892897131283486
C -0.8839553696931995 -1.4590138661278997 -0.02947079144464762
26
Mode 8 - Frame 9
C -2.157560630540614 0.09087826862278203 1.642178576337771
C -2.871083962026491 -0.1922478315410285 0.821669161251212
C -2.6132425039352576 0.8905471140511247 2.2417832054283306
C -1.8031314885722822 -0.778724588886808 2.332205715409199
C -1.0281019789685732 0.831598794238755 0.7225821550830255
C -0.8289335217093521 2.063274362338725 0.8957039119575853
C -0.2504796146025728 -0.04360823811246642 0.06871093415564342
C 4.175071782764484 2.402703302766915 -1.3137636729122892
C 1.1888174111286727 0.13985566215342604 -0.17665465778512277
C 1.7439759155916799 0.19669200880835547 0.7765792933466061
C 1.3676524019783254 1.4624812848843654 -0.9967123826164175
C 2.511938688545402 1.8250609613502364 -1.31987666382792
C 1.7365231353033364 -1.118976146623743 -0.9128826651201806
C 1.627379643611721 -2.023401683744048 -0.31190052918205713
C 1.162169823927395 -1.2265205203721836 -1.8557934263597455
C 2.7901823997299973 -0.9983606301384172 -1.157343130619275
C 1.0730225054240674 2.53200409254563 -0.32763415107787597
C 0.09562166515766343 2.434471854363809 -0.420930541478012
C 1.9251870581631538 3.709816842304586 0.21075500129222066
C 2.837711555130233 3.897326580602619 -0.47883478704295507
C 1.1942140618697932 4.564269391690509 0.14209792363810256
C 2.4135108703215593 3.6638926875374445 1.2486614715544166
C -0.041759045619546215 1.23470497290744 0.6365956477623465
C 1.206670267816731 2.4573821752097507 -0.6219754744244774
C -0.9421503861178557 -1.616164245647961 -0.06854071219996444
C -0.887092468829676 -1.455273390374144 -0.0349906320454373
26
Mode 8 - Frame 10
C -2.163579870917102 0.10524344436149805 1.6232429729302746
C -2.8674074796096285 -0.15575147176486828 0.795339493476499
C -2.6155110964433357 0.8987192194083813 2.231206784090469
C -1.8384478599422303 -0.7742519386349629 2.293701619773896
C -1.0092896926439296 0.8163630506264643 0.7532747165359668
C -0.7862140141767088 2.0319569771023844 0.9487196722806402
C -0.2414563943405673 -0.05321720872415403 0.08412997616450751
C 4.159585926462492 2.4152487297848264 -1.3362106410941252
C 1.1927938912159421 0.1331290222496712 -0.17703629925532002
C 1.7554579250100384 0.1815258964443379 0.769901351425611
C 1.3726100630037965 1.461214365455303 -0.981260542207477
C 2.514046147770005 1.8245157774894458 -1.311061682618251
C 1.7275359728780373 -1.115290947172134 -0.931698295181925
C 1.616907612236332 -2.024400282719639 -0.3390047229503924
C 1.1485840067026747 -1.2117966203319503 -1.8701688407576145
C 2.780432736176737 -0.9954984581782899 -1.180287909196176
C 1.0886667187523023 2.5242253174093645 -0.29834136365113006
C 0.11005001837501519 2.426025409026577 -0.3832964034237966
C 1.9103287714069224 3.7161811150761404 0.1919120283247623
C 2.796878343892163 3.9011418831254705 -0.5171157553895575
C 1.169160962486433 4.558702072020133 0.12939337419715147
C 2.410604170851266 3.688578614765505 1.2181145434480916
C -0.024507185700606338 1.2191065203709661 0.6571638738067926
C 1.2201820514674775 2.449084852868465 -0.5932705885429905
C -0.9496126528958981 -1.607314376145153 -0.08154580091906904
C -0.893229560816893 -1.4479559156058657 -0.04578906972562828
26
Mode 8 - Frame 11
C -2.172278425088538 0.12600291757235726 1.59587866087317
C -2.862094503309773 -0.10300967334571445 0.757289834860291
C -2.6187894959738665 0.9105289323785511 2.215922534219556
C -1.8894844277290939 -0.7677884003689827 2.238058392263971
C -0.9821035891743486 0.7943454981008493 0.7976293014602398
C -0.7244789899531712 1.9866994437680876 1.0253340678298428
C -0.22841671402534908 -0.06710337145724513 0.10641241776788035
C 4.137206929860174 2.4333784388001645 -1.3686493138337799
C 1.1985404016204546 0.12340818740427884 -0.17758781884831465
C 1.7720508627688738 0.15960896976970154 0.7602508912478809
C 1.379774502417469 1.4593835086369589 -0.9589307028193415
C 2.5170916895797175 1.8237279187149393 -1.2983229337435573
C 1.7145484006406293 -1.1099653736682773 -0.9588892307692632
C 1.6017742188999207 -2.025843382968409 -0.3781736683688065
C 1.1289508038895628 -1.1905187456992863 -1.8909431101097993
C 2.766343254569957 -0.9913622621990789 -1.2134459801352264
C 1.1112745610369719 2.512984015737058 -0.2560096270321334
C 0.13090079093362514 2.4138192405191727 -0.32891037327975503
C 1.8888566911841975 3.7253782841543863 0.1646815788234282
C 2.7378692534203033 3.906655471817672 -0.5724365360978116
C 1.1329561046442729 4.550656599715748 0.11103371340548793
C 2.4064036270582 3.724252862981973 1.1739704168998717
C 0.0004239067091785509 1.1965648081460982 0.6868875294954452
C 1.2397082665191055 2.437094185716266 -0.5517884430881685
C -0.960396560457401 -1.5945252093291842 -0.10033977850623296
C -0.9020984252859746 -1.437381250583578 -0.06139416094194321
26
Mode 8 - Frame 12
C -2.183276124497337 0.1522493996610407 1.56128159191189
C -2.8553772356857174 -0.03632750595771181 0.7091831380666354
C -2.62293442073586 0.9254601118355479 2.19659845087692
C -1.9540106490199642 -0.7596164617265884 2.1677079089274365
C -0.9477318317348485 0.7665084093592183 0.8537074016577417
C -0.6464265658348207 1.9294797337122829 1.1221986818830345
C -0.21193047025802142 -0.08465983436710205 0.13458440934467686
C 4.108912862495392 2.4563000745329635 -1.4096619654745082
C 1.205805792262717 0.11111800474573344 -0.17828511251140816
C 1.7930295378663756 0.13189910364921045 0.7480496842312284
C 1.3888325998381708 1.4570687316577207 -0.9306987855837295
C 2.5209422091833247 1.8227318182357288 -1.2822171616569618
C 1.6981280378191732 -1.1032321792292286 -0.9932670975204437
C 1.5826408655093662 -2.0276679140847245 -0.42769549456906164
C 1.1041282806615513 -1.163616841698209 -1.9172082991596058
C 2.7485297328647076 -0.9861328138127461 -1.255368176626313
C 1.1398579610857733 2.4987714863535406 -0.20248904124134537
C 0.1572627040195746 2.398386816977064 -0.26014938153630884
C 1.8617092504351846 3.7370063891176906 0.1302537540976204
C 2.6632632641253053 3.9136263763962393 -0.6423793455922093
C 1.0871818143611982 4.540484600523515 0.0878213465391345
C 2.4010928228625636 3.7693562963557534 1.1181584020669348
C 0.03194462323884652 1.1680650172241993 0.7244675484447853
C 1.2643955236766835 2.4219342234453096 -0.49934200686980523
C -0.9740308002949969 -1.5783556931591436 -0.12410125795738707
C -0.9133114503020885 -1.4240115589116278 -0.08112388832669355
26
Mode 8 - Frame 13
C -2.1960923169065176 0.18283579341567846 1.5209638239751988
C -2.847549253565659 0.04138069970774397 0.6531218965869574
C -2.627764717627661 0.9428601935893526 2.1740790892318733
C -2.0292064183132674 -0.7500932756397649 2.085724823465172
C -0.9076766310595269 0.7340683987567524 0.9190581350572615
C -0.5554680072927147 1.8627986228350408 1.2350800659981027
C -0.1927181910009913 -0.10511929577930815 0.16741469967877695
C 4.075940310881985 2.4830118515114887 -1.4574561463390738
C 1.2142725307084499 0.09679561423105298 -0.17909770516553714
C 1.8174770815339314 0.09960735219902014 0.7338309816701682
C 1.3993884729430435 1.454371201379113 -0.897798660755607
C 2.5254294203973044 1.821571010422576 -1.2634482658827175
C 1.678992533062609 -1.0953856367614259 -1.0333294176951326
C 1.5603437714198516 -2.0297941353037303 -0.4854058601141197
C 1.0752013003953864 -1.132266650623223 -1.9478164931111965
C 2.727770707438269 -0.9800386650074518 -1.3042222975177569
C 1.1731676871582026 2.4822088849921546 -0.14011871269808768
C 0.18798361553251378 2.380402609362025 -0.18001861348449272
C 1.8300729225884893 3.7505572259813182 0.09013321529088876
C 2.576321015738616 3.921749934880978 -0.7238873474750084
C 1.0338386477719936 4.528630639618802 0.060770765415445085
C 2.394903865891772 3.821917678418126 1.0531177518132415
C 0.06867735732287188 1.1348527252257261 0.768261503497789
C 1.2931648713398223 2.4042675291524067 -0.4382234408165663
C -0.9899194907034415 -1.5595125130816094 -0.15179174860028713
C -0.9263785728659668 -1.4084311602709776 -0.10411596811942984
26
Mode 8 - Frame 14
C -2.2101668732088835 0.21642532665939163 1.476687436988045
C -2.83895267733107 0.1267187221777304 0.5915562556856024
C -2.6330692794967616 0.9619687105724679 2.1493486534481905
C -2.1117853196615513 -0.7396350510378235 1.9956921901103697
C -0.8636885916240732 0.6984432504212214 0.9908253610216291
C -0.45557863980273255 1.7895703956531672 1.3590447620242412
C -0.17161954504853527 -0.1275875790547617 0.2034684475453689
C 4.039730333745316 2.5123463369044514 -1.5099430213817695
C 1.2235705798596561 0.08106697305218383 -0.17999008261246394
C 1.8443250188009386 0.0641450199105193 0.7182162090955236
C 1.410980779424705 1.4514088128184979 -0.8616682216622773
C 2.5303572105595786 1.8202962281470898 -1.2428365372293135
C 1.6579781997511385 -1.0867686778226 -1.0773252756613552
C 1.535857426636417 -2.0321291205554144 -0.5487825451046031
C 1.0434341109357512 -1.0978383262592133 -1.981429967014477
C 2.7049734473146323 -0.9733461593289578 -1.357873183298521
C 1.2097479443870955 2.464020076808572 -0.07162452404574257
C 0.22172087422403827 2.360652613844636 -0.09202016819825706
C 1.7953303669789562 3.7654385581502 0.046073422468792494
C 2.480842301709929 3.9306711087849466 -0.8133982509451433
C 0.9752579572255204 4.515612791974761 0.031064210232614648
C 2.3881072432633585 3.8796398245554715 0.9816910546545451
C 0.10901671221856837 1.098379468681271 0.8163553886719279
C 1.3247589509649962 2.3848662221523615 -0.37110391954439714
C -1.0073682196694902 -1.5388192064855797 -0.1822010431201221
C -0.9407286970185571 -1.3913209928452717 -0.12936553610496987
26
Mode 8 - Frame 15
C -2.224884667756808 0.2515499756089668 1.4303875215234443
C -2.8299632186143517 0.21595688037304428 0.5271769292946816
C -2.6386162715353705 0.9819505288998943 2.123487982239416
C -2.1981382588183624 -0.7286988625199982 1.9015448669651416
C -0.8176902018298488 0.6611899542833157 1.0658725073988433
C -0.35112410804655175 1.7129954770825302 1.4886749178964984
C -0.14955664447131156 -0.15108271239954035 0.24116993115760574
C 4.001865480841006 2.543021472937701 -1.56482866230326
C 1.233293570351438 0.06461949830303668 -0.18092324367565582
C 1.8723999659781325 0.027061980871865447 0.7018878069967983
C 1.4231028798638485 1.4483110365710914 -0.8238865418652013
C 2.535510211593895 1.8189631855117927 -1.221282807144951
C 1.6360034650884314 -1.0777579048671344 -1.1233318413104376
C 1.5102520019246166 -2.0345708197797756 -0.6150556842913523
C 1.010215090897919 -1.061836551586316 -2.016579650764531
C 2.6811343021545917 -0.9663477913896195 -1.4139760328144722
C 1.248 2.445 -1.9517494442501826e-16
C 0.2569999999999999 2.34 -2.507525383708741e-16
C 1.759 3.781 1.2554886457708306e-16
C 2.3810000000000002 3.94 -0.9069999999999998
C 0.9140000000000003 4.502 8.464915594951218e-17
C 2.381 3.94 0.9070000000000003
C 0.15119966454729306 1.0602393039199292 0.8666472704050265
C 1.3577969496673705 2.364578232658877 -0.3009168882080882
C -1.0256143940090354 -1.5171801701668026 -0.21400010942639058
C -0.9557346534748558 -1.3734288530547056 -0.1557690650014757
26
Mode 8 - Frame 16
C -2.2396024623047324 0.28667462455854215 1.3840876060588432
C -2.8209737598976337 0.30519503856835856 0.4627976029037604
C -2.6441632635739793 1.0019323472273207 2.0976273110306414
C -2.2844911979751745 -0.7177626740021729 1.8073975438199132
C -0.7716918120356241 0.6239366581454099 1.140919653776058
C -0.2466695762903705 1.6364205585118927 1.6183050737687563
C -0.12749374389408777 -0.17457784574431912 0.27887141476984273
C 3.9640006279366955 2.5736966089709505 -1.6197143032247507
C 1.24301656084322 0.048172023553889456 -0.1818564047388477
C 1.9004749131553265 -0.010021058166788558 0.6855594048980731
C 1.4352249803029922 1.445213260323685 -0.7861048620681251
C 2.540663212628211 1.8176301428764956 -1.1997290770605886
C 1.6140287304257246 -1.0687471319116688 -1.1693384069595205
C 1.4846465772128166 -2.037012519004137 -0.6813288234781018
C 0.976996070860087 -1.0258347769134186 -2.051729334514585
C 2.657295156994551 -0.9593494234502811 -1.4700788823304238
C 1.2862520556129045 2.4259799231914276 0.07162452404574249
C 0.2922791257759617 2.3193473861553637 0.09202016819825695
C 1.7226696330210436 3.7965614418498004 -0.04607342246879244
C 2.2811576982900705 3.9493288912150533 -1.0006017490548567
C 0.8527420427744797 4.488387208025238 -0.03106421023261461
C 2.373892756736641 4.000360175444528 0.8323089453454551
C 0.1933826168760179 1.0220991391585874 0.9169391521381254
C 1.3908349483697449 2.3442902431653923 -0.23072985687177905
C -1.0438605683485807 -1.4955411338480256 -0.2457991757326592
C -0.9707406099311544 -1.3555367132641396 -0.18217259389798166
26
Mode 8 - Frame 17
C -2.2536770186070982 0.3202641578022554 1.3398112190716893
C -2.8123771836630445 0.3905330610383452 0.4012319620024053
C -2.64946782544308 1.021040864210436 2.0728968752469585
C -2.3670700993234584 -0.7073044494002313 1.7173649104651107
C -0.7277037726001704 0.5883115098098787 1.2126868797404255
C -0.1467802088003882 1.5631923313300191 1.742269769794895
C -0.10639509794163168 -0.1970461290197727 0.3149251626364348
C 3.9277906508000267 2.6030310943639132 -1.6722011782674466
C 1.2523146099944262 0.032443382375020265 -0.18274878218577453
C 1.9273228504223336 -0.045483390455289485 0.6699446323234284
C 1.4468172867846536 1.4422508717630698 -0.7499744229747953
C 2.545591002790485 1.8163553606010094 -1.1791173484071846
C 1.5930143971142539 -1.060130172972843 -1.213334264925743
C 1.4601602324293816 -2.039347504255821 -0.7447055084685854
C 0.9452288814004516 -0.9914064525494087 -2.0853428084178653
C 2.6344978968709145 -0.9526569177717871 -1.5237297681111879
C 1.3228323128417974 2.407791115007845 0.14011871269808773
C 0.32601638446748626 2.2995973906379747 0.1800186134844928
C 1.6879270774115105 3.811442774018682 -0.09013321529088879
C 2.1856789842613837 3.9582500651190218 -1.0901126525249918
C 0.7941613522280064 4.4753693603811975 -0.060770765415445106
C 2.3670961341082277 4.058082321581874 0.7608822481867584
C 0.2337219717717145 0.9856258826141322 0.9650330373122643
C 1.4224290279949188 2.324888936165347 -0.16361033559960972
C -1.0613092973146294 -1.4748478272519958 -0.27620847025249423
C -0.9850907340837447 -1.3384265458384337 -0.20742216188352172
26
Mode 8 - Frame 18
C -2.2664932110162788 0.3508505515568931 1.299493451134998
C -2.804549201542986 0.46824126670380073 0.34517072052272757
C -2.654298122334881 1.0384409459642407 2.050377513601912
C -2.4422658686167615 -0.697781263313408 1.6353818250028465
C -0.6876485719248489 0.555871499207413 1.2780376131399451
C -0.05582165025828234 1.496511220452777 1.8551511539099632
C -0.0871828186846016 -0.21750559043197876 0.3477554529705348
C 3.8948180991866197 2.6297428713424384 -1.7199953591320118
C 1.260781348440159 0.018120991860339844 -0.18356137483990348
C 1.9517703940898894 -0.07777514190547971 0.6557259297623683
C 1.4573731598895263 1.4395533414844621 -0.7170742981466729
C 2.550078214004465 1.8151945527878566 -1.1603484526329404
C 1.5738788923576899 -1.0522836305050403 -1.2533965851004318
C 1.4378631383398672 -2.0414737254748268 -0.8024158740136433
C 0.9163019011342868 -0.960056261474423 -2.115951002369456
C 2.613738871444476 -0.9465627689664928 -1.5725838890026318
C 1.3561420389142267 2.391228513646459 0.20248904124134529
C 0.35673729598042536 2.281613183022936 0.2601493815363088
C 1.6562907495648151 3.8249936108823097 -0.13025375409762036
C 2.0987367358746942 3.9663736236037606 -1.1716206544077905
C 0.740818185638802 4.463515399476485 -0.08782134653913447
C 2.360907177137436 4.1106437036442465 0.6958415979330652
C 0.2704547058557398 0.952413590615659 1.0088269923652677
C 1.4511983756580575 2.307222241872444 -0.1024917695463709
C -1.077197987723074 -1.4560046471744617 -0.30389896089539425
C -0.998157856647623 -1.3228461471977835 -0.23041424167625796
26
Mode 8 - Frame 19
C -2.277490910425078 0.37709703364557645 1.2648963821737182
C -2.7978319339189306 0.5349234340918033 0.2970640237290719
C -2.6584430470968745 1.0533721254212374 2.0310534302592758
C -2.5067920899076315 -0.6896093246710137 1.565031341666312
C -0.6532768144853487 0.528034410465782 1.334115713337447
C 0.022230773860067943 1.4392915103969726 1.9520157679631547
C -0.07069657491727399 -0.23506205334183564 0.3759274445473313
C 3.8665240318218372 2.6526645070752375 -1.7610080107727404
C 1.2680467390824215 0.005830809201794462 -0.184258668502997
C 1.9727490691873912 -0.10548500802597077 0.6435247227457158
C 1.466431257310228 1.437238564505224 -0.688842380911061
C 2.553928733608072 1.814198452308646 -1.1442426805463448
C 1.5574585295362335 -1.0455504360659915 -1.2877744518516123
C 1.4187297849493126 -2.043298256591142 -0.8519377002138984
C 0.8914793779062754 -0.9331543574733457 -2.142216191419262
C 2.5959253497392263 -0.9413333205801601 -1.614506085493718
C 1.384725438963028 2.377015984262942 0.25600962703213326
C 0.38309920906637485 2.266180759480827 0.3289103732797548
C 1.6291433088158023 3.836621715845614 -0.1646815788234281
C 2.0241307465796963 3.973344528182328 -1.2415634639021882
C 0.6950438953557273 4.453343400284251 -0.11103371340548786
C 2.3555963729417995 4.155747137018027 0.6400295831001286
C 0.3019754223854077 0.9239137996937602 1.046407011314608
C 1.4758856328156356 2.2920622796014882 -0.05004533332800776
C -1.0908322275606699 -1.4398351310044213 -0.3276604403465483
C -1.0093708816637368 -1.3094764555258334 -0.2501439690610083
26
Mode 8 - Frame 20
C -2.286189464596514 0.39785650685643575 1.2375320701166135
C -2.792518957619075 0.5876652325109573 0.25901436511286385
C -2.6617214466274053 1.0651818383914073 2.015769180388363
C -2.5578286576944955 -0.6831457864050334 1.5093881141563865
C -0.6260907110157676 0.506016857940167 1.3784702982617203
C 0.08396579808360571 1.3940339770626757 2.028630163512357
C -0.05765689460205574 -0.24894821607492676 0.39820988615070413
C 3.8441450352195194 2.6707942160905755 -1.793446683512395
C 1.273793249486934 -0.0038900256435979025 -0.18481018809599162
C 1.9893420069462266 -0.12740193470060715 0.6338742625679856
C 1.4735956967239006 1.4354077076868799 -0.6665125415229254
C 2.5569742754177844 1.8134105935341396 -1.131503931671651
C 1.5444709572988256 -1.0402248625621349 -1.3149653874389506
C 1.4035963916129013 -2.0447413568399124 -0.8911066456323125
C 0.8718461750931634 -0.9118764828406816 -2.162990460771447
C 2.5818358681324463 -0.9371971246009491 -1.6476641564327688
C 1.4073332812476977 2.365774682590635 0.29834136365112995
C 0.40394998162498474 2.2539745909734226 0.3832964034237965
C 1.6076712285930774 3.84581888492386 -0.19191202832476228
C 1.9651216561078364 3.9788581168745294 -1.2968842446104425
C 0.6588390375135671 4.445297927979866 -0.12939337419715144
C 2.3513958291487334 4.191421385234495 0.5958854565519085
C 0.3269065147951926 0.9013720874688923 1.0761306670032607
C 1.4954118478672636 2.280071612449289 -0.008563187873185552
C -1.1016161351221727 -1.4270459641884523 -0.34645441793371223
C -1.0182397461328185 -1.2989017905035456 -0.26574906027732326
26
Mode 8 - Frame 21
C -2.2922087049730018 0.4122216825951518 1.2185964667091174
C -2.7888424752022125 0.6241615922871175 0.23268469733815078
C -2.6639900391354834 1.0733539437486639 2.005192759050501
C -2.5931450290644436 -0.6786731361531884 1.4708840185210836
C -0.6072784246911241 0.4907811143278763 1.4091628597146615
C 0.12668530561624913 1.362716591826335 2.0816459238354126
C -0.048633674340050226 -0.25855718668661437 0.41362892815956825
C 3.828659178917527 2.683339643108487 -1.815893651694231
C 1.2777697295742034 -0.010616665547352744 -0.18519182956618888
C 2.000824016364585 -0.14256804706462475 0.6271963206469905
C 1.4785533577493717 1.4341407882578174 -0.6510607011139848
C 2.5590817346423878 1.812865409673349 -1.1226889504619821
C 1.5354837948735265 -1.036539663110526 -1.333781017500695
C 1.3931243602375123 -2.0457399558155034 -0.9182108394006478
C 0.8582603578684432 -0.8971525828004484 -2.177365875169316
C 2.572086204579186 -0.9343349526408217 -1.6706089350096698
C 1.4229774945759324 2.3579959074543697 0.3276341510778759
C 0.41837833484233655 2.245528145636191 0.420930541478012
C 1.5928129418368462 3.852183157695414 -0.21075500129222063
C 1.9242884448697668 3.982673419397381 -1.3351652129570448
C 0.6337859381302069 4.439730608309491 -0.14209792363810253
C 2.3484891296784403 4.216107312462555 0.5653385284455834
C 0.3441583747141326 0.8857736349324183 1.0966988930477068
C 1.5089236315180101 2.271774290108003 0.020141698008301345
C -1.1090784019002151 -1.4181960946856442 -0.3594595066528169
C -1.0243768381200355 -1.2915843157352673 -0.2765474979575142
26
Mode 8 - Frame 22
C -2.295285561866569 0.4195647337501816 1.2089171486832433
C -2.786963166591679 0.6428174473691014 0.21922575323045146
C -2.665149676242591 1.0775312812747824 1.9997864066094546
C -2.611197709121857 -0.6763868501936411 1.4512018685028156
C -0.5976621426951705 0.4829930547339761 1.4248519854815274
C 0.14852224898788097 1.3467080747002662 2.108746005808359
C -0.044021272154921784 -0.26346900705221105 0.42151068444936374
C 3.82074326914564 2.6897524927686507 -1.8273678750961984
C 1.2798023880831473 -0.014055124067676533 -0.1853869133500222
C 2.0066932785340903 -0.15032051323263454 0.6237827550889983
C 1.4810875668103314 1.4334931766764405 -0.6431621792562671
C 2.560159005201055 1.8125867278770733 -1.1181829938951737
C 1.530889824383512 -1.0346558986107488 -1.3433990087157373
C 1.3877713688446323 -2.046250409950872 -0.9320656981908761
C 0.8513156916368193 -0.8896261624375158 -2.18471416002279
C 2.5671024661607986 -0.9328718953486603 -1.6823376242993473
C 1.4309743517560238 2.3540196286543043 0.34260775393943305
C 0.4257536804479116 2.2412105736609105 0.4401679950208016
C 1.5852178269763257 3.855436384900991 -0.22038696938850916
C 1.9034157201360782 3.9846236887227824 -1.3547333069327823
C 0.6209795378668084 4.436884759857683 -0.14859211195457958
C 2.347003311245664 4.228726025226121 0.5497238461198237
C 0.3529770130801611 0.877800169309862 1.1072127592725056
C 1.5158304539856058 2.267532945378915 0.034814783062107446
C -1.112892891028668 -1.4136723042596548 -0.36610732172149785
C -1.027513937256512 -1.2878438399815115 -0.2820673385583039
26
Mode 8 - Frame 23
C -2.295285561866569 0.4195647337501816 1.2089171486832433
C -2.786963166591679 0.6428174473691014 0.2192257532304514
C -2.665149676242591 1.0775312812747824 1.9997864066094546
C -2.611197709121857 -0.6763868501936411 1.4512018685028156
C -0.5976621426951705 0.482993054733976 1.4248519854815274
C 0.14852224898788102 1.3467080747002662 2.1087460058083596
C -0.04402127215492177 -0.26346900705221105 0.4215106844493638
C 3.82074326914564 2.6897524927686507 -1.8273678750961984
C 1.2798023880831473 -0.014055124067676547 -0.1853869133500222
C 2.0066932785340903 -0.15032051323263457 0.6237827550889983
C 1.4810875668103314 1.4334931766764405 -0.643162179256267
C 2.560159005201055 1.8125867278770733 -1.1181829938951737
C 1.530889824383512 -1.0346558986107488 -1.3433990087157373
C 1.3877713688446323 -2.046250409950872 -0.9320656981908763
C 0.8513156916368192 -0.8896261624375158 -2.18471416002279
C 2.5671024661607986 -0.9328718953486603 -1.6823376242993473
C 1.4309743517560238 2.3540196286543043 0.3426077539394331
C 0.4257536804479117 2.2412105736609105 0.4401679950208017
C 1.5852178269763257 3.855436384900991 -0.22038696938850919
C 1.9034157201360782 3.9846236887227824 -1.3547333069327823
C 0.6209795378668083 4.436884759857683 -0.1485921119545796
C 2.347003311245664 4.228726025226121 0.5497238461198236
C 0.35297701308016116 0.877800169309862 1.1072127592725056
C 1.515830453985606 2.267532945378915 0.034814783062107446
C -1.112892891028668 -1.4136723042596548 -0.36610732172149785
C -1.027513937256512 -1.2878438399815115 -0.2820673385583039
26
Mode 8 - Frame 24
C -2.2922087049730018 0.4122216825951518 1.2185964667091171
C -2.7888424752022125 0.6241615922871175 0.23268469733815078
C -2.6639900391354834 1.0733539437486639 2.005192759050501
C -2.5931450290644436 -0.6786731361531884 1.4708840185210834
C -0.607278424691124 0.49078111432787624 1.4091628597146615
C 0.1266853056162492 1.362716591826335 2.0816459238354126
C -0.04863367434005021 -0.2585571866866144 0.4136289281595683
C 3.828659178917527 2.683339643108487 -1.815893651694231
C 1.2777697295742034 -0.010616665547352758 -0.18519182956618888
C 2.000824016364585 -0.14256804706462478 0.6271963206469905
C 1.4785533577493717 1.4341407882578174 -0.6510607011139848
C 2.5590817346423878 1.812865409673349 -1.1226889504619821
C 1.5354837948735265 -1.036539663110526 -1.3337810175006952
C 1.3931243602375123 -2.0457399558155034 -0.9182108394006478
C 0.8582603578684432 -0.8971525828004484 -2.177365875169316
C 2.572086204579186 -0.9343349526408217 -1.6706089350096698
C 1.4229774945759326 2.3579959074543697 0.32763415107787597
C 0.41837833484233655 2.245528145636191 0.420930541478012
C 1.592812941836846 3.852183157695414 -0.21075500129222066
C 1.9242884448697668 3.982673419397381 -1.335165212957045
C 0.6337859381302069 4.439730608309491 -0.14209792363810256
C 2.3484891296784403 4.216107312462555 0.5653385284455834
C 0.3441583747141326 0.8857736349324183 1.0966988930477068
C 1.5089236315180101 2.271774290108003 0.0201416980083014
C -1.1090784019002151 -1.4181960946856442 -0.3594595066528169
C -1.0243768381200355 -1.2915843157352673 -0.27654749795751427
26
Mode 8 - Frame 25
C -2.286189464596514 0.3978565068564358 1.2375320701166135
C -2.792518957619075 0.5876652325109573 0.2590143651128638
C -2.6617214466274053 1.0651818383914073 2.015769180388363
C -2.5578286576944955 -0.6831457864050334 1.5093881141563865
C -0.6260907110157676 0.506016857940167 1.3784702982617203
C 0.08396579808360577 1.3940339770626755 2.028630163512357
C -0.05765689460205574 -0.2489482160749268 0.3982098861507042
C 3.8441450352195194 2.6707942160905755 -1.793446683512395
C 1.273793249486934 -0.0038900256435979164 -0.18481018809599162
C 1.9893420069462266 -0.12740193470060718 0.6338742625679856
C 1.4735956967239006 1.4354077076868799 -0.6665125415229253
C 2.5569742754177844 1.8134105935341396 -1.131503931671651
C 1.5444709572988256 -1.0402248625621349 -1.3149653874389506
C 1.4035963916129013 -2.0447413568399124 -0.8911066456323126
C 0.8718461750931634 -0.9118764828406816 -2.1629904607714474
C 2.5818358681324463 -0.9371971246009491 -1.6476641564327688
C 1.4073332812476977 2.365774682590635 0.29834136365113
C 0.4039499816249848 2.2539745909734226 0.38329640342379656
C 1.6076712285930774 3.84581888492386 -0.19191202832476228
C 1.9651216561078364 3.9788581168745294 -1.2968842446104425
C 0.6588390375135671 4.445297927979866 -0.12939337419715144
C 2.3513958291487334 4.191421385234495 0.5958854565519085
C 0.3269065147951926 0.9013720874688923 1.0761306670032607
C 1.4954118478672636 2.280071612449289 -0.008563187873185552
C -1.1016161351221727 -1.4270459641884523 -0.3464544179337123
C -1.0182397461328185 -1.2989017905035456 -0.26574906027732326
26
Mode 8 - Frame 26
C -2.277490910425078 0.37709703364557645 1.2648963821737182
C -2.7978319339189306 0.5349234340918033 0.2970640237290719
C -2.6584430470968745 1.0533721254212374 2.0310534302592758
C -2.5067920899076315 -0.6896093246710137 1.565031341666312
C -0.6532768144853487 0.528034410465782 1.334115713337447
C 0.022230773860067943 1.4392915103969726 1.9520157679631547
C -0.07069657491727399 -0.23506205334183564 0.3759274445473313
C 3.8665240318218372 2.6526645070752375 -1.7610080107727404
C 1.2680467390824215 0.005830809201794462 -0.184258668502997
C 1.9727490691873912 -0.10548500802597077 0.6435247227457158
C 1.466431257310228 1.437238564505224 -0.688842380911061
C 2.553928733608072 1.814198452308646 -1.1442426805463448
C 1.5574585295362335 -1.0455504360659915 -1.2877744518516123
C 1.4187297849493126 -2.043298256591142 -0.8519377002138984
C 0.8914793779062754 -0.9331543574733457 -2.142216191419262
C 2.5959253497392263 -0.9413333205801601 -1.614506085493718
C 1.384725438963028 2.377015984262942 0.25600962703213326
C 0.38309920906637485 2.266180759480827 0.3289103732797548
C 1.6291433088158023 3.836621715845614 -0.1646815788234281
C 2.0241307465796963 3.973344528182328 -1.2415634639021882
C 0.6950438953557273 4.453343400284251 -0.11103371340548786
C 2.3555963729417995 4.155747137018027 0.6400295831001286
C 0.3019754223854077 0.9239137996937602 1.046407011314608
C 1.4758856328156356 2.2920622796014882 -0.05004533332800776
C -1.0908322275606699 -1.4398351310044213 -0.3276604403465483
C -1.0093708816637368 -1.3094764555258334 -0.2501439690610083
26
Mode 8 - Frame 27
C -2.2664932110162788 0.35085055155689315 1.299493451134998
C -2.804549201542986 0.46824126670380084 0.34517072052272746
C -2.654298122334881 1.0384409459642407 2.050377513601912
C -2.4422658686167615 -0.697781263313408 1.6353818250028462
C -0.6876485719248487 0.555871499207413 1.2780376131399453
C -0.055821650258282174 1.496511220452777 1.8551511539099634
C -0.08718281868460157 -0.21750559043197876 0.3477554529705349
C 3.8948180991866197 2.6297428713424384 -1.719995359132012
C 1.260781348440159 0.018120991860339816 -0.18356137483990348
C 1.9517703940898894 -0.07777514190547977 0.6557259297623682
C 1.4573731598895263 1.4395533414844621 -0.7170742981466728
C 2.550078214004465 1.8151945527878566 -1.1603484526329404
C 1.5738788923576896 -1.0522836305050403 -1.253396585100432
C 1.437863138339867 -2.0414737254748268 -0.8024158740136434
C 0.9163019011342867 -0.960056261474423 -2.115951002369456
C 2.613738871444476 -0.9465627689664928 -1.5725838890026318
C 1.3561420389142267 2.391228513646459 0.2024890412413454
C 0.3567372959804255 2.2816131830229356 0.2601493815363089
C 1.6562907495648151 3.8249936108823097 -0.1302537540976204
C 2.0987367358746942 3.9663736236037606 -1.1716206544077907
C 0.7408181856388019 4.463515399476485 -0.08782134653913452
C 2.360907177137436 4.1106437036442465 0.6958415979330651
C 0.27045470585573983 0.952413590615659 1.008826992365268
C 1.4511983756580578 2.307222241872444 -0.10249176954637079
C -1.077197987723074 -1.4560046471744617 -0.3038989608953943
C -0.998157856647623 -1.3228461471977835 -0.230414241676258
26
Mode 8 - Frame 28
C -2.2536770186070982 0.3202641578022554 1.3398112190716893
C -2.8123771836630445 0.3905330610383451 0.4012319620024053
C -2.64946782544308 1.021040864210436 2.0728968752469585
C -2.3670700993234584 -0.7073044494002313 1.7173649104651107
C -0.7277037726001704 0.5883115098098787 1.2126868797404255
C -0.14678020880038822 1.5631923313300191 1.742269769794895
C -0.10639509794163168 -0.1970461290197727 0.3149251626364348
C 3.9277906508000267 2.6030310943639132 -1.6722011782674466
C 1.2523146099944262 0.03244338237502027 -0.18274878218577453
C 1.9273228504223336 -0.04548339045528947 0.6699446323234284
C 1.4468172867846536 1.4422508717630698 -0.7499744229747953
C 2.545591002790485 1.8163553606010094 -1.1791173484071846
C 1.5930143971142539 -1.060130172972843 -1.213334264925743
C 1.4601602324293816 -2.039347504255821 -0.7447055084685854
C 0.9452288814004516 -0.9914064525494087 -2.0853428084178653
C 2.6344978968709145 -0.9526569177717871 -1.5237297681111879
C 1.3228323128417974 2.407791115007845 0.14011871269808773
C 0.32601638446748626 2.2995973906379747 0.18001861348449277
C 1.6879270774115105 3.811442774018682 -0.09013321529088877
C 2.1856789842613837 3.9582500651190218 -1.0901126525249918
C 0.7941613522280064 4.4753693603811975 -0.0607707654154451
C 2.3670961341082277 4.058082321581874 0.7608822481867585
C 0.2337219717717145 0.9856258826141322 0.9650330373122643
C 1.4224290279949188 2.324888936165347 -0.16361033559960975
C -1.0613092973146294 -1.4748478272519958 -0.27620847025249423
C -0.9850907340837447 -1.3384265458384337 -0.20742216188352172
26
Mode 8 - Frame 29
C -2.239602462304732 0.28667462455854215 1.3840876060588432
C -2.8209737598976337 0.3051950385683585 0.46279760290376043
C -2.6441632635739793 1.0019323472273207 2.0976273110306414
C -2.2844911979751745 -0.7177626740021729 1.8073975438199132
C -0.7716918120356241 0.6239366581454099 1.140919653776058
C -0.24666957629037056 1.6364205585118927 1.6183050737687563
C -0.1274937438940878 -0.1745778457443191 0.27887141476984273
C 3.9640006279366955 2.5736966089709505 -1.6197143032247507
C 1.24301656084322 0.04817202355388946 -0.1818564047388477
C 1.9004749131553265 -0.010021058166788544 0.6855594048980731
C 1.4352249803029922 1.445213260323685 -0.7861048620681251
C 2.540663212628211 1.8176301428764956 -1.1997290770605886
C 1.6140287304257246 -1.0687471319116688 -1.1693384069595205
C 1.4846465772128166 -2.037012519004137 -0.6813288234781018
C 0.976996070860087 -1.0258347769134186 -2.0517293345145844
C 2.657295156994551 -0.9593494234502811 -1.4700788823304238
C 1.2862520556129045 2.4259799231914276 0.07162452404574246
C 0.29227912577596166 2.3193473861553637 0.09202016819825692
C 1.7226696330210436 3.7965614418498004 -0.046073422468792424
C 2.2811576982900705 3.9493288912150533 -1.0006017490548567
C 0.8527420427744797 4.488387208025238 -0.031064210232614596
C 2.373892756736641 4.000360175444528 0.8323089453454551
C 0.1933826168760179 1.0220991391585874 0.9169391521381253
C 1.3908349483697449 2.3442902431653923 -0.23072985687177908
C -1.0438605683485807 -1.4955411338480256 -0.24579917573265916
C -0.9707406099311544 -1.3555367132641396 -0.18217259389798166
26
Mode 8 - Frame 30
C -2.224884667756808 0.2515499756089671 1.4303875215234438
C -2.8299632186143517 0.21595688037304503 0.5271769292946811
C -2.6386162715353705 0.9819505288998944 2.123487982239416
C -2.1981382588183633 -0.728698862519998 1.901544866965141
C -0.8176902018298484 0.6611899542833154 1.065872507398844
C -0.3511241080465509 1.7129954770825295 1.4886749178964995
C -0.1495566444713114 -0.15108271239954055 0.24116993115760604
C 4.001865480841006 2.543021472937701 -1.5648286623032603
C 1.233293570351438 0.06461949830303655 -0.18092324367565582
C 1.8723999659781327 0.027061980871865145 0.7018878069967982
C 1.4231028798638485 1.4483110365710914 -0.8238865418652009
C 2.535510211593895 1.8189631855117927 -1.2212828071449509
C 1.6360034650884312 -1.0777579048671344 -1.123331841310438
C 1.5102520019246164 -2.0345708197797756 -0.6150556842913528
C 1.0102150908979188 -1.0618365515863157 -2.016579650764531
C 2.6811343021545917 -0.9663477913896195 -1.4139760328144726
C 1.2480000000000002 2.445 3.9034988885003653e-16
C 0.2570000000000002 2.34 5.015050767417482e-16
C 1.7589999999999997 3.781 -2.510977291541661e-16
C 2.3809999999999993 3.94 -0.9070000000000006
C 0.9139999999999997 4.502 -1.6929831189902436e-16
C 2.381 3.9400000000000004 0.9069999999999996
C 0.1511996645472934 1.060239303919929 0.8666472704050269
C 1.3577969496673707 2.364578232658877 -0.30091688820808765
C -1.0256143940090354 -1.5171801701668024 -0.21400010942639083
C -0.9557346534748559 -1.3734288530547056 -0.15576906500147591
