26
Mode 10 - Frame 1
C -2.2336281403484795 0.2567317864814386 1.4149461883328944
C -2.8409103239167477 0.32303847608400105 0.5127937764948428
C -2.5598391510422034 0.8917229123840358 2.2622019861431157
C -2.266492279679464 -0.7788075466677438 1.7762243684928767
C -0.8176233015010578 0.6588851523679434 1.074227975287446
C -0.3723998732256358 1.729843476357564 1.4747981483767352
C -0.14752821957853235 -0.14805420409068895 0.2474538632755168
C 4.018662110842062 2.514697913393445 -1.528384105513384
C 1.248064025836722 0.06667377270253558 -0.14089787354472044
C 1.873107649832036 0.05041414173933463 0.7483923875784025
C 1.4253590187136227 1.439955682140249 -0.8055115006123916
C 2.4524347619836395 1.8438961544624304 -1.3499181449190807
C 1.6882256594494685 -1.1004100017151912 -1.032413918708219
C 1.5316322451853206 -2.0457256666099504 -0.5187676864342073
C 1.0907206785849772 -1.104409406651986 -1.9545683173401305
C 2.7371783008875017 -0.9851777025481209 -1.3032644672640397
C 1.2553500124125931 2.4460454909785643 0.007231850536083254
C 0.2625347899949622 2.3440321141552642 0.0012005835970388264
C 1.7637088541022594 3.78162655870661 0.002607969198314487
C 2.4343300741681735 3.927806486706355 -0.8700687724579158
C 0.9179890336896792 4.503734888666566 -0.05354050962842182
C 2.361788548151788 3.9499723228841153 0.9230805592617904
C 0.14472030739029038 1.0689332054360827 0.8720154225511013
C 1.3684485595335318 2.36276871480641 -0.29153038698261213
C -1.048083351129168 -1.4758716408222012 -0.2879994493357582
C -0.976576656257547 -1.3356776947015194 -0.2229178910337547
26
Mode 10 - Frame 2
C -2.241989481232058 0.26168712735369587 1.4001797154985092
C -2.851378988187389 0.4254400922278835 0.49903923649038173
C -2.4845049687291523 0.8054386756700606 2.3948535224525838
C -2.331858901829952 -0.8267262408700891 1.6563809771583209
C -0.8175593250376585 0.6566810813559396 1.0822182691353335
C -0.3927457853739458 1.745955137218609 1.461527860273113
C -0.14558844658703018 -0.14515805612732952 0.25346315740622327
C 4.034724647512898 2.4876122293127905 -1.4935323507356117
C 1.26218894154079 0.06863826545327416 -0.1026218041515419
C 1.87378440450568 0.07274570112079524 0.7928644948348544
C 1.4275165534695065 1.4319654967914732 -0.7879395368355604
C 2.3729901081615883 1.8677394330282664 -1.4729315011716464
C 1.738165493327037 -1.1220720932341672 -0.9454695455963136
C 1.5520780692217422 -2.056392993106753 -0.4266879361244959
C 1.167707785781441 -1.1451216236640627 -1.8952671767497682
C 2.7907729079468404 -1.0031846562330573 -1.197391528381194
C 1.2623787940134834 2.447045288984543 0.014147634501470642
C 0.26782768310827554 2.347888005573713 0.0023486959298477804
C 1.7682119086846613 3.7822257337911784 0.005101957628237965
C 2.4853293681891095 3.9161458884546105 -0.8347516167751121
C 0.9218037274656121 4.505393954373484 -0.10474104207021205
C 2.343416728936117 3.95950880740568 0.9384583209207562
C 0.13852412923245377 1.0772471417380123 0.8771489606891406
C 1.378634642936447 2.3610382815671263 -0.28255412090211973
C -1.0695703070051323 -1.436368492430275 -0.3587646630028571
C -0.9965077635076093 -1.2995764431185233 -0.28713199115260646
26
Mode 10 - Frame 3
C -2.249603259688767 0.26619942605125757 1.386733468740549
C -2.8609116805634254 0.5186862868017326 0.48651444868109883
C -2.4159061898568104 0.7268688539400736 2.515645082498402
C -2.391381290217997 -0.8703606682509855 1.5472524242351888
C -0.8175010685180945 0.654674069726835 1.089494174759669
C -0.41127263050008195 1.7606263027737106 1.449444028853668
C -0.1438221028845972 -0.14252084407272073 0.2589351785604208
C 4.0493510809243976 2.4629481950615952 -1.461796586891006
C 1.2750509908685088 0.07042711879536304 -0.06776788339756075
C 1.874400652572397 0.09308066271256638 0.8333604842782002
C 1.429481189509667 1.4246896899656687 -0.7719386296713924
C 2.300648362717509 1.8894509555232288 -1.5849466019508365
C 1.783640356342777 -1.141797442078436 -0.8662986082851019
C 1.5706958934135409 -2.066106585914761 -0.3428407602984166
C 1.2378117064776974 -1.1821938833802257 -1.841267973395687
C 2.839575781828657 -1.0195816621614462 -1.100984371629842
C 1.2687791533188757 2.447955698047512 0.020445098951261387
C 0.27264735451276917 2.35139915329774 0.0033941589802288963
C 1.7723123586539011 3.782771338427349 0.0073729660278985185
C 2.531768968192329 3.9055278293421267 -0.8025920621254431
C 0.9252773609048588 4.50690468798828 -0.15136388837025122
C 2.3266874790104817 3.968192663429973 0.9524612030017131
C 0.13288193279184238 1.0848177539146309 0.8818235245690632
C 1.3879100191531575 2.359462561177122 -0.27438039586723173
C -1.0891361785592952 -1.4003972021328879 -0.42320297102126536
C -1.0146568901981512 -1.2667028962329197 -0.345604901049398
26
Mode 10 - Frame 4
C -2.2561367170650852 0.2700714734686287 1.375195113564588
C -2.86909177664509 0.5987017536577861 0.47576680639485974
C -2.357040910235362 0.65944732542351 2.6192974954843558
C -2.4424580308509327 -0.9078037949526745 1.4536081511431174
C -0.8174510780318164 0.6529518335195316 1.0957377001710007
C -0.42717069657036566 1.7732157726880478 1.4390747755360866
C -0.14230638616688715 -0.14025782674839643 0.26363077315600025
C 4.0619021657510626 2.441783747287803 -1.4345638191446666
C 1.2860880405452968 0.07196215125388222 -0.03785939486739365
C 1.8749294610345852 0.11053029111511577 0.8681104868484484
C 1.43116706281178 1.4184462493343182 -0.7582080955438331
C 2.2385712070615162 1.9080818242308442 -1.6810678498445113
C 1.8226627787702978 -1.1587239558507774 -0.7983612566393912
C 1.5866720295053023 -2.074441914417275 -0.2708906828829581
C 1.2979685629433861 -1.2140059501584402 -1.794930731581386
C 2.881454002762145 -1.0336520924926533 -1.018256452372882
C 1.274271363914793 2.448736928922792 0.025849014470412494
C 0.2767831614407173 2.35441210332345 0.004291280996192209
C 1.7758309946701816 3.78323952707442 0.00932174043272362
C 2.571619240815767 3.8964163695032195 -0.7749956353657637
C 0.9282581195577816 4.508201063202685 -0.19137140642398956
C 2.312331946872479 3.975644364778967 0.9644772123644401
C 0.12804030912717335 1.091314169885993 0.8858348133182702
C 1.3958693097347998 2.3581104201785856 -0.2673664428838572
C -1.105925843317271 -1.3695298879254376 -0.4784981101212703
C -1.0302308324036236 -1.2384937857883884 -0.3957810739774875
26
Mode 10 - Frame 5
C -2.2613043099226613 0.2731340425535253 1.3660689314589858
C -2.875561766981158 0.6619894329376255 0.46726603317248266
C -2.310481825051215 0.6061207344409318 2.7012806535834977
C -2.4828568250697063 -0.9374191766662365 1.3795408619713072
C -0.8174115384029556 0.6515896427204948 1.100675973349094
C -0.4397451618101407 1.7831733267153849 1.4308732864475446
C -0.14110754052767976 -0.13846790887059152 0.2673447211771721
C 4.071829359359181 2.4250438739174163 -1.4130242501244266
C 1.2948177185386378 0.07317627454449144 -0.014203483026659719
C 1.8753477184249425 0.12433195383464501 0.8955957606842666
C 1.4325004926228253 1.4135080432123632 -0.7473480246806693
C 2.1894717107750195 1.9228177807877624 -1.757094285078796
C 1.8535272934991587 -1.1721118646769155 -0.7446266789256811
C 1.5993082436878103 -2.0810346847613914 -0.21398226751595273
C 1.3455492118863326 -1.239167484029265 -1.7582806111249063
C 2.914577291538511 -1.044781001903789 -0.952823377654443
C 1.278615389843643 2.449354838072371 0.03012320401987343
C 0.2800543492835652 2.3567951752769805 0.005000853440771075
C 1.7786140354553017 3.7836098376418956 0.010863110049965315
C 2.6031385379229546 3.889209723454484 -0.7531684327678194
C 0.9306157299679807 4.50922642219913 -0.2230150757151076
C 2.300977538162026 3.9815382363464815 0.9739811917405758
C 0.1242108604252806 1.096452465100887 0.8890075143701223
C 1.4021646554900427 2.3570409536214454 -0.26181880535405005
C -1.1192055123633862 -1.3451155995565964 -0.522233417388686
C -1.0425489341175815 -1.216181985273686 -0.4354675704079266
26
Mode 10 - Frame 6
C -2.2648801896567567 0.27525328434110036 1.359753780374038
C -2.8800388819474856 0.7057833493687427 0.46138365359502115
C -2.278263789742195 0.5692197089076516 2.758011499388056
C -2.5108120517120343 -0.9579124791004202 1.3282876526708525
C -0.8173841777030255 0.6506470316041593 1.1040931680596031
C -0.44844646174945 1.7900637719630819 1.4251980060163227
C -0.140277961274108 -0.13722931843954497 0.2699147052739112
C 4.078698795752119 2.4134601877435466 -1.3981192623547904
C 1.3008584960305807 0.07401642565338115 0.0021659752635417584
C 1.8756371448884888 0.13388245198258508 0.9146150674300526
C 1.4334232016615542 1.4100908949034756 -0.7398330542910234
C 2.155495757451261 1.9330147931814818 -1.809703187618641
C 1.8748849731313348 -1.1813760526988342 -0.7074433340371724
C 1.6080522727660065 -2.08559676124745 -0.17460268502581294
C 1.3784741506304443 -1.2565788052241103 -1.7329193981569855
C 2.937498001495055 -1.0524820036511549 -0.9075448868224494
C 1.2816213763273863 2.4497824199013563 0.03308086500649575
C 0.28231795143567956 2.358444217478714 0.005491864593231036
C 1.7805398487724409 3.7838660857810296 0.011929709631038109
C 2.6249493149839402 3.884222856209574 -0.7380644078236793
C 0.9322471532474608 4.5099359518692514 -0.2449119160524114
C 2.2931204950242674 3.9856166876630823 0.9805577716262305
C 0.12156095197017053 1.1000080714021463 0.8912029654643449
C 1.4065209196009614 2.3563009023261188 -0.2579799416583813
C -1.1283948004374036 -1.3282213585808362 -0.5524974500306379
C -1.0510728351863148 -1.200742627435202 -0.4629299000097665
26
Mode 10 - Frame 7
C -2.266708073164017 0.2763365777959865 1.3565256627156141
C -2.882327450136463 0.7281694986565715 0.45837675587679916
C -2.261794887050592 0.5503570007102399 2.78701062271157
C -2.5251019332295863 -0.9683880466010764 1.3020885344283684
C -0.8173701917259043 0.6501651967994589 1.1058399364961589
C -0.4528943078274763 1.7935859629097894 1.4222969712302822
C -0.1398539050003159 -0.13659618780050983 0.2712284048090382
C 4.08221024759629 2.4075389514366847 -1.3905002753233575
C 1.3039463620578606 0.07444588594560056 0.010533556126553156
C 1.8757850910999445 0.13876438296149626 0.9243371721162563
C 1.4338948631153248 1.4083441501860505 -0.7359916246417515
C 2.1381282592852027 1.9382272030397023 -1.8365952959775316
C 1.8858023845813825 -1.186111630445469 -0.6884363125709776
C 1.6125219607106664 -2.0879287592417386 -0.15447301213156
C 1.3953044013612195 -1.2654789554579724 -1.7199554993809243
C 2.9492143876209056 -1.056418527004884 -0.8843998671965637
C 1.2831579473323593 2.4500009870320554 0.034592733452732026
C 0.2834750376210447 2.3592871588714535 0.005742854910076677
C 1.7815242673385625 3.7839970722185274 0.012474923656136483
C 2.6360983363814388 3.8816737177967373 -0.7303436789005552
C 0.9330810883704709 4.510298642361764 -0.2561049304404633
C 2.2891042079465995 3.987701470835653 0.9839195239224692
C 0.12020639747700299 1.101825591732714 0.8923252148531772
C 1.408747712422234 2.355922610085371 -0.2560176285612634
C -1.1330920915553921 -1.3195855243963603 -0.5679675245977317
C -1.0554300002309047 -1.1928504862967373 -0.47696782720052877
26
Mode 10 - Frame 8
C -2.266708073164017 0.2763365777959865 1.3565256627156141
C -2.882327450136463 0.7281694986565717 0.45837675587679916
C -2.261794887050592 0.5503570007102399 2.78701062271157
C -2.5251019332295863 -0.9683880466010764 1.3020885344283681
C -0.8173701917259043 0.6501651967994589 1.1058399364961589
C -0.4528943078274763 1.7935859629097894 1.4222969712302822
C -0.1398539050003159 -0.13659618780050983 0.2712284048090382
C 4.08221024759629 2.4075389514366847 -1.3905002753233575
C 1.3039463620578606 0.07444588594560057 0.010533556126553184
C 1.8757850910999445 0.1387643829614963 0.9243371721162563
C 1.4338948631153248 1.4083441501860505 -0.7359916246417515
C 2.1381282592852022 1.9382272030397025 -1.8365952959775318
C 1.8858023845813825 -1.186111630445469 -0.6884363125709776
C 1.6125219607106664 -2.0879287592417386 -0.15447301213155995
C 1.3953044013612195 -1.2654789554579724 -1.7199554993809243
C 2.9492143876209056 -1.056418527004884 -0.8843998671965637
C 1.2831579473323593 2.4500009870320554 0.03459273345273203
C 0.2834750376210447 2.3592871588714535 0.005742854910076678
C 1.7815242673385625 3.7839970722185274 0.012474923656136484
C 2.6360983363814388 3.8816737177967373 -0.7303436789005552
C 0.9330810883704709 4.510298642361764 -0.2561049304404633
C 2.2891042079465995 3.987701470835653 0.9839195239224693
C 0.12020639747700299 1.101825591732714 0.8923252148531772
C 1.408747712422234 2.355922610085371 -0.2560176285612634
C -1.1330920915553921 -1.3195855243963603 -0.5679675245977318
C -1.0554300002309047 -1.1928504862967373 -0.47696782720052877
26
Mode 10 - Frame 9
C -2.2648801896567567 0.27525328434110036 1.359753780374038
C -2.8800388819474856 0.7057833493687428 0.4613836535950211
C -2.278263789742195 0.5692197089076515 2.758011499388056
C -2.5108120517120343 -0.9579124791004202 1.3282876526708525
C -0.8173841777030255 0.6506470316041593 1.1040931680596031
C -0.44844646174945 1.7900637719630819 1.4251980060163227
C -0.140277961274108 -0.13722931843954497 0.2699147052739112
C 4.078698795752119 2.4134601877435466 -1.3981192623547904
C 1.3008584960305807 0.07401642565338115 0.0021659752635417584
C 1.8756371448884888 0.13388245198258508 0.9146150674300527
C 1.4334232016615542 1.4100908949034756 -0.7398330542910234
C 2.155495757451261 1.9330147931814818 -1.809703187618641
C 1.8748849731313348 -1.1813760526988342 -0.7074433340371723
C 1.6080522727660065 -2.08559676124745 -0.1746026850258129
C 1.3784741506304445 -1.2565788052241103 -1.7329193981569855
C 2.937498001495055 -1.0524820036511549 -0.9075448868224493
C 1.2816213763273863 2.4497824199013563 0.033080865006495756
C 0.28231795143567956 2.358444217478714 0.005491864593231037
C 1.7805398487724409 3.7838660857810296 0.011929709631038109
C 2.6249493149839407 3.884222856209574 -0.7380644078236793
C 0.9322471532474608 4.5099359518692514 -0.24491191605241142
C 2.2931204950242674 3.9856166876630823 0.9805577716262305
C 0.12156095197017053 1.1000080714021463 0.8912029654643449
C 1.4065209196009614 2.3563009023261188 -0.2579799416583813
C -1.1283948004374036 -1.3282213585808362 -0.5524974500306379
C -1.051072835186315 -1.200742627435202 -0.4629299000097665
26
Mode 10 - Frame 10
C -2.2613043099226613 0.2731340425535253 1.3660689314589858
C -2.875561766981158 0.6619894329376256 0.4672660331724826
C -2.310481825051215 0.6061207344409317 2.701280653583498
C -2.4828568250697063 -0.9374191766662365 1.3795408619713072
C -0.8174115384029556 0.6515896427204948 1.100675973349094
C -0.4397451618101407 1.7831733267153849 1.4308732864475446
C -0.14110754052767976 -0.1384679088705915 0.2673447211771721
C 4.071829359359181 2.4250438739174163 -1.4130242501244266
C 1.294817718538638 0.07317627454449145 -0.014203483026659691
C 1.8753477184249425 0.12433195383464503 0.8955957606842666
C 1.4325004926228253 1.4135080432123632 -0.7473480246806693
C 2.1894717107750195 1.9228177807877624 -1.7570942850787963
C 1.8535272934991587 -1.1721118646769155 -0.744626678925681
C 1.5993082436878103 -2.0810346847613914 -0.21398226751595267
C 1.3455492118863326 -1.239167484029265 -1.758280611124906
C 2.914577291538511 -1.0447810019037893 -0.952823377654443
C 1.278615389843643 2.449354838072371 0.030123204019873433
C 0.2800543492835652 2.3567951752769805 0.005000853440771075
C 1.7786140354553017 3.7836098376418956 0.010863110049965317
C 2.6031385379229546 3.889209723454484 -0.7531684327678194
C 0.9306157299679807 4.50922642219913 -0.22301507571510762
C 2.300977538162026 3.9815382363464815 0.9739811917405758
C 0.1242108604252806 1.096452465100887 0.8890075143701223
C 1.4021646554900427 2.3570409536214454 -0.26181880535405005
C -1.1192055123633864 -1.3451155995565964 -0.5222334173886861
C -1.0425489341175815 -1.216181985273686 -0.4354675704079266
26
Mode 10 - Frame 11
C -2.2561367170650852 0.2700714734686287 1.375195113564588
C -2.86909177664509 0.5987017536577863 0.4757668063948597
C -2.357040910235362 0.6594473254235099 2.619297495484356
C -2.442458030850933 -0.9078037949526746 1.4536081511431171
C -0.8174510780318164 0.6529518335195316 1.0957377001710007
C -0.4271706965703657 1.7732157726880478 1.4390747755360866
C -0.14230638616688715 -0.1402578267483964 0.26363077315600025
C 4.0619021657510626 2.441783747287803 -1.4345638191446666
C 1.2860880405452968 0.07196215125388222 -0.03785939486739359
C 1.8749294610345852 0.11053029111511581 0.8681104868484485
C 1.43116706281178 1.4184462493343182 -0.758208095543833
C 2.2385712070615162 1.9080818242308442 -1.6810678498445115
C 1.8226627787702978 -1.1587239558507774 -0.7983612566393911
C 1.5866720295053023 -2.074441914417275 -0.2708906828829579
C 1.2979685629433864 -1.2140059501584402 -1.794930731581386
C 2.881454002762145 -1.0336520924926533 -1.0182564523728819
C 1.274271363914793 2.448736928922792 0.025849014470412508
C 0.2767831614407173 2.35441210332345 0.004291280996192211
C 1.7758309946701816 3.78323952707442 0.009321740432723625
C 2.571619240815767 3.8964163695032195 -0.7749956353657635
C 0.9282581195577816 4.508201063202685 -0.19137140642398964
C 2.312331946872479 3.975644364778967 0.9644772123644401
C 0.12804030912717332 1.091314169885993 0.8858348133182702
C 1.3958693097347998 2.3581104201785856 -0.26736644288385714
C -1.105925843317271 -1.3695298879254376 -0.4784981101212704
C -1.0302308324036236 -1.2384937857883884 -0.39578107397748763
26
Mode 10 - Frame 12
C -2.249603259688767 0.26619942605125757 1.386733468740549
C -2.8609116805634254 0.5186862868017327 0.48651444868109883
C -2.4159061898568104 0.7268688539400736 2.5156450824984025
C -2.391381290217997 -0.8703606682509855 1.5472524242351888
C -0.8175010685180945 0.654674069726835 1.089494174759669
C -0.41127263050008195 1.7606263027737106 1.449444028853668
C -0.14382210288459718 -0.14252084407272073 0.2589351785604208
C 4.0493510809243976 2.4629481950615952 -1.461796586891006
C 1.2750509908685088 0.07042711879536304 -0.06776788339756074
C 1.874400652572397 0.09308066271256638 0.8333604842782002
C 1.429481189509667 1.4246896899656687 -0.7719386296713924
C 2.3006483627175087 1.8894509555232288 -1.5849466019508365
C 1.7836403563427772 -1.141797442078436 -0.8662986082851019
C 1.5706958934135409 -2.066106585914761 -0.34284076029841654
C 1.2378117064776974 -1.1821938833802257 -1.841267973395687
C 2.839575781828657 -1.0195816621614462 -1.100984371629842
C 1.2687791533188757 2.447955698047512 0.02044509895126139
C 0.27264735451276917 2.35139915329774 0.0033941589802288967
C 1.7723123586539011 3.782771338427349 0.00737296602789852
C 2.531768968192329 3.9055278293421267 -0.802592062125443
C 0.9252773609048588 4.50690468798828 -0.15136388837025125
C 2.3266874790104817 3.968192663429973 0.9524612030017131
C 0.13288193279184238 1.0848177539146309 0.8818235245690632
C 1.3879100191531575 2.359462561177122 -0.27438039586723173
C -1.0891361785592952 -1.4003972021328879 -0.42320297102126536
C -1.0146568901981512 -1.2667028962329197 -0.34560490104939806
26
Mode 10 - Frame 13
C -2.241989481232058 0.26168712735369587 1.4001797154985092
C -2.851378988187389 0.4254400922278835 0.4990392364903818
C -2.4845049687291523 0.8054386756700606 2.3948535224525838
C -2.331858901829952 -0.8267262408700891 1.6563809771583209
C -0.8175593250376585 0.6566810813559396 1.0822182691353335
C -0.3927457853739458 1.745955137218609 1.461527860273113
C -0.14558844658703018 -0.14515805612732952 0.2534631574062232
C 4.034724647512898 2.4876122293127905 -1.4935323507356117
C 1.26218894154079 0.06863826545327416 -0.10262180415154191
C 1.87378440450568 0.07274570112079523 0.7928644948348544
C 1.4275165534695065 1.4319654967914732 -0.7879395368355604
C 2.3729901081615883 1.8677394330282664 -1.4729315011716462
C 1.738165493327037 -1.1220720932341672 -0.9454695455963136
C 1.5520780692217422 -2.056392993106753 -0.42668793612449596
C 1.1677077857814409 -1.1451216236640627 -1.8952671767497682
C 2.7907729079468404 -1.003184656233057 -1.197391528381194
C 1.2623787940134834 2.447045288984543 0.014147634501470639
C 0.26782768310827554 2.347888005573713 0.0023486959298477795
C 1.7682119086846613 3.7822257337911784 0.005101957628237963
C 2.4853293681891095 3.9161458884546105 -0.8347516167751122
C 0.9218037274656121 4.505393954373484 -0.10474104207021202
C 2.3434167289361176 3.95950880740568 0.9384583209207562
C 0.13852412923245377 1.0772471417380123 0.8771489606891406
C 1.378634642936447 2.3610382815671263 -0.28255412090211973
C -1.0695703070051323 -1.436368492430275 -0.35876466300285703
C -0.9965077635076093 -1.2995764431185233 -0.28713199115260646
26
Mode 10 - Frame 14
C -2.2336281403484795 0.2567317864814386 1.4149461883328944
C -2.8409103239167477 0.32303847608400105 0.5127937764948428
C -2.5598391510422034 0.8917229123840358 2.2622019861431157
C -2.266492279679464 -0.7788075466677438 1.7762243684928767
C -0.8176233015010578 0.6588851523679434 1.074227975287446
C -0.3723998732256358 1.729843476357564 1.4747981483767352
C -0.14752821957853235 -0.14805420409068895 0.2474538632755168
C 4.018662110842062 2.514697913393445 -1.528384105513384
C 1.248064025836722 0.06667377270253558 -0.14089787354472044
C 1.873107649832036 0.05041414173933463 0.7483923875784025
C 1.4253590187136227 1.439955682140249 -0.8055115006123916
C 2.4524347619836395 1.8438961544624304 -1.3499181449190807
C 1.6882256594494685 -1.1004100017151912 -1.032413918708219
C 1.5316322451853206 -2.0457256666099504 -0.5187676864342073
C 1.0907206785849772 -1.104409406651986 -1.9545683173401305
C 2.7371783008875017 -0.9851777025481209 -1.3032644672640397
C 1.2553500124125931 2.4460454909785643 0.007231850536083254
C 0.2625347899949622 2.3440321141552642 0.0012005835970388264
C 1.7637088541022594 3.78162655870661 0.002607969198314487
C 2.4343300741681735 3.927806486706355 -0.8700687724579158
C 0.9179890336896792 4.503734888666566 -0.05354050962842182
C 2.361788548151788 3.9499723228841153 0.9230805592617904
C 0.14472030739029038 1.0689332054360827 0.8720154225511013
C 1.3684485595335318 2.36276871480641 -0.29153038698261213
C -1.048083351129168 -1.4758716408222012 -0.2879994493357582
C -0.976576656257547 -1.3356776947015194 -0.2229178910337547
26
Mode 10 - Frame 15
C -2.224884667756808 0.2515499756089669 1.430387521523444
C -2.8299632186143517 0.21595688037304483 0.5271769292946814
C -2.6386162715353705 0.9819505288998941 2.1234879822394164
C -2.198138258818363 -0.7286988625199983 1.901544866965141
C -0.8176902018298486 0.6611899542833156 1.0658725073988435
C -0.35112410804655153 1.71299547708253 1.4886749178964989
C -0.1495566444713115 -0.1510827123995404 0.24116993115760588
C 4.001865480841006 2.543021472937701 -1.5648286623032601
C 1.233293570351438 0.06461949830303663 -0.1809232436756557
C 1.8723999659781325 0.02706198087186541 0.7018878069967984
C 1.4231028798638485 1.4483110365710914 -0.8238865418652012
C 2.5355102115938943 1.8189631855117927 -1.2212828071449515
C 1.6360034650884316 -1.0777579048671344 -1.1233318413104376
C 1.5102520019246166 -2.0345708197797756 -0.6150556842913523
C 1.0102150908979193 -1.0618365515863162 -2.016579650764531
C 2.6811343021545917 -0.9663477913896195 -1.4139760328144722
C 1.248 2.445 1.9706602525814443e-17
C 0.257 2.34 3.2715587286833764e-18
C 1.759 3.781 7.106647480381346e-18
C 2.381 3.94 -0.9069999999999999
C 0.914 4.502 -1.4589648071574906e-16
C 2.381 3.94 0.907
C 0.15119966454729314 1.0602393039199292 0.8666472704050266
C 1.3577969496673705 2.364578232658877 -0.30091688820808804
C -1.0256143940090354 -1.5171801701668024 -0.21400010942639086
C -0.9557346534748559 -1.3734288530547056 -0.15576906500147597
26
Mode 10 - Frame 16
C -2.216141195165137 0.24636816473649528 1.4458288547139937
C -2.819016113311956 0.10887528466208814 0.54156008209452
C -2.717393392028537 1.0721781454157526 1.9847739783357161
C -2.129784237957262 -0.6785901783722526 2.026865365437406
C -0.8177571021586395 0.6634947561986878 1.0575170395102411
C -0.32984834286746717 1.6961474778074959 1.5025516874162625
C -0.15158506936409066 -0.15411122070839187 0.2348859990396949
C 3.98506885083995 2.571345032481957 -1.601273219093136
C 1.2185231148661542 0.0625652239035377 -0.22094861380659114
C 1.871692282124229 0.0037098200043960868 0.6553832264151942
C 1.4208467410140744 1.4566663910019337 -0.8422615831180107
C 2.6185856612041496 1.794030216561155 -1.0926474693708217
C 1.5837812707273946 -1.0551058080190778 -1.2142497639126566
C 1.4888717586639126 -2.023415972949601 -0.7113436821484975
C 0.929709503210861 -1.0192636965206459 -2.078590984188931
C 2.6250903034216817 -0.947517880231118 -1.5246875983649049
C 1.2406499875874069 2.4439545090214354 -0.007231850536083245
C 0.2514652100050378 2.3359678858447355 -0.001200583597038825
C 1.7542911458977404 3.7803734412933903 -0.002607969198314484
C 2.3276699258318265 3.9521935132936448 -0.9439312275420843
C 0.9100109663103209 4.500265111333434 0.05354050962842176
C 2.4002114518482114 3.9300276771158846 0.8909194407382096
C 0.15767902170429596 1.0515454024037756 0.861279118258952
C 1.3471453398012092 2.3663877505113438 -0.3103033894335639
C -1.0031454368889028 -1.558488699511404 -0.14000076951702323
C -0.9348926506921645 -1.4111800114078918 -0.08862023896919692
26
Mode 10 - Frame 17
C -2.207779854281558 0.24141282386423796 1.460595327548379
C -2.8085474490413143 0.006473668518205522 0.5553146220989811
C -2.7927275743415887 1.1584623821297282 1.852122442026248
C -2.0644176158067737 -0.6306714841699073 2.146708756771962
C -0.8178210786220388 0.6656988272106916 1.0495267456623536
C -0.3095024307191572 1.6800358169464509 1.5158219755198847
C -0.15352484235559283 -0.1570073686717513 0.22887670490898845
C 3.969006314169113 2.5984307165626115 -1.6361249738709085
C 1.204398199162086 0.06060073115279911 -0.25922468319976977
C 1.871015527450585 -0.018621739377064555 0.6109111191587422
C 1.4186892062581906 1.4646565763507096 -0.8598335468948419
C 2.6980303150262013 1.770186937995319 -0.9696341131182559
C 1.5338414368498259 -1.0334437165001016 -1.301194137024562
C 1.468425934627491 -2.012748646452798 -0.8034234324582091
C 0.852722396014397 -0.9785514795085692 -2.1378921247792935
C 2.571495696362343 -0.9295109265461817 -1.6305605372477507
C 1.2336212059865166 2.4429547110154566 -0.014147634501470644
C 0.24617231689172445 2.332111994426287 -0.002348695929847781
C 1.7497880913153385 3.779774266208822 -0.005101957628237965
C 2.27667063181089 3.9638541115453894 -0.9792483832248879
C 0.906196272534388 4.498606045626516 0.10474104207021206
C 2.4185832710638824 3.9204911925943198 0.8755416790792439
C 0.1638751998621326 1.043231466101846 0.8561455801209127
C 1.336959256398294 2.3681181837506275 -0.3192796555140564
C -0.9816584810129384 -1.5979918479033302 -0.06923555584992425
C -0.9149615434421022 -1.447281262990888 -0.024406138850345066
26
Mode 10 - Frame 18
C -2.200166075824849 0.23690052516667628 1.474041574306339
C -2.799014756665278 -0.08677252605564348 0.567839409908264
C -2.8613263532139306 1.237032203859715 1.7313308819804298
C -2.0048952274187286 -0.5870370567890109 2.2558373096950937
C -0.8178793351416028 0.6677058388397963 1.0422508400380182
C -0.290975585593021 1.6653646513913494 1.5279058069393296
C -0.1552911860580258 -0.1596445807263601 0.22340468375479092
C 3.954379880757614 2.6230947508138067 -1.6678607377155144
C 1.1915361498343673 0.058811877810710234 -0.29407860395375085
C 1.870399279383868 -0.038956700968835675 0.5704151297153964
C 1.41672457021803 1.471932383176514 -0.87583445405901
C 2.7703720604702804 1.7484754155003566 -0.8576190123390658
C 1.4883665738340859 -1.0137183676558328 -1.3803650743357738
C 1.4498081104356926 -2.00303505364479 -0.8872706082842883
C 0.7826184753181407 -0.9414792197924062 -2.1918913281333747
C 2.5226928224805265 -0.9131139206177927 -1.7269676939991028
C 1.2272208466811243 2.4420443019524876 -0.020445098951261384
C 0.24135264548723084 2.3286008467022596 -0.0033941589802288954
C 1.7456876413460987 3.779228661572651 -0.007372966027898518
C 2.2302310318076706 3.974472170657873 -1.011407937874557
C 0.9027226390951413 4.497095312011719 0.1513638883702512
C 2.435312520989518 3.911807336570027 0.861538796998287
C 0.16951739630274393 1.0356608539252274 0.8514710162409901
C 1.3276838801815836 2.369693904140632 -0.32745338054894435
C -0.9620926094587756 -1.6339631382007171 -0.004797247831516055
C -0.8968124167515604 -1.4801548098764916 0.034066771046446453
26
Mode 10 - Frame 19
C -2.1936326184485306 0.23302847774930513 1.4855799294823002
C -2.7908346605836134 -0.16678799291169702 0.5785870521945031
C -2.9201916328353787 1.3044537323762784 1.627678468994476
C -1.9538184867857928 -0.5495939300873218 2.349481582787165
C -0.8179293256278809 0.6694280750470997 1.0360073146266864
C -0.2750775195227373 1.6527751814770122 1.538275060256911
C -0.15680690277573586 -0.1619075980506844 0.21870908915921144
C 3.941828795930949 2.644259198587599 -1.6950935054618537
C 1.1804991001575793 0.057276845352191054 -0.323987092483918
C 1.8698704709216798 -0.05640632937138507 0.5356651271451482
C 1.415038696915917 1.4781758238078646 -0.8895649881865693
C 2.8324492161262733 1.7298445467927412 -0.761497764445391
C 1.449344151406565 -0.9967918538834915 -1.4483024259814843
C 1.433831974343931 -1.994699725142276 -0.9592206856997468
C 0.722461618852452 -0.9096671530141918 -2.2382285699476756
C 2.4808146015470385 -0.8990434902865856 -1.8096956132560627
C 1.221728636085207 2.441263071077208 -0.02584901447041249
C 0.23721683855928272 2.3255878966765495 -0.004291280996192208
C 1.7421690053298182 3.77876047292558 -0.00932174043272362
C 2.1903807591842326 3.9835836304967804 -1.0390043646342364
C 0.8997418804422185 4.495798936797314 0.19137140642398953
C 2.4496680531275206 3.904355635221033 0.84952278763556
C 0.174359019967413 1.0291644379538654 0.8474597274917831
C 1.3197245895999412 2.371046045139168 -0.3344673335323189
C -0.9453029447007999 -1.6648304524081676 0.05049789126848894
C -0.881238474546088 -1.5083639203210228 0.08424294397453594
26
Mode 10 - Frame 20
C -2.1884650255909546 0.22996590866440852 1.4947061115879023
C -2.7843646702475455 -0.23007567219153638 0.5870878254168802
C -2.966750718019526 1.3577803233588568 1.5456953108953342
C -1.9134196925670195 -0.5199785483737599 2.4235488719589755
C -0.8179688652567417 0.6707902658461364 1.031069041448593
C -0.2625030542829623 1.642817627449675 1.5464765493454529
C -0.15800574841494325 -0.1636975159284893 0.21499514113803958
C 3.93190160232283 2.6609990719579857 -1.7166330744820935
C 1.1717694221642383 0.056062722061581825 -0.3476430043246519
C 1.8694522135313225 -0.07020799209091431 0.50817985330933
C 1.4137052671048718 1.4831140299298196 -0.900425059049733
C 2.88154871241277 1.715108590235823 -0.685471329211106
C 1.4184796366777042 -0.9834039450573533 -1.5020370036951944
C 1.421195760161423 -1.9881069547981598 -1.0161291010667521
C 0.6748809699095057 -0.8845056191433669 -2.2748786904041554
C 2.4476913127706723 -0.8879145808754497 -1.8751286879745015
C 1.217384610156357 2.4406451619276286 -0.030123204019873426
C 0.2339456507164348 2.3232048247230193 -0.005000853440771074
C 1.739385964544698 3.7783901623581047 -0.010863110049965314
C 2.158861462077045 3.990790276545516 -1.0608315672321806
C 0.8973842700320194 4.49477357780087 0.22301507571510756
C 2.4610224618379735 3.8984617636535184 0.8400188082594242
C 0.17818846866930574 1.0240261427389714 0.844287026439931
C 1.3134292438446984 2.3721155116963084 -0.340014971062126
C -0.9320232756546846 -1.6892447407770088 0.09423319853590464
C -0.86892037283213 -1.5306757208357253 0.12392944040497503
26
Mode 10 - Frame 21
C -2.184889145856859 0.22784666687683347 1.50102126267285
C -2.779887555281218 -0.27386958862265365 0.5929702049943417
C -2.998968753328546 1.394681348892137 1.4889644650907758
C -1.8854644659246917 -0.4994852459395761 2.4748020812594302
C -0.8179962259566718 0.671732876962472 1.027651846738084
C -0.25380175434365293 1.635927182201978 1.552151829776675
C -0.15883532766851502 -0.16493610635953584 0.21242515704130047
C 3.925032165929893 2.6725827581318553 -1.7315380622517298
C 1.1657286446722954 0.05522257095269211 -0.3640124626148534
C 1.8691627870677763 -0.07975849023885438 0.48916054656354396
C 1.4127825580661428 1.4865311782387072 -0.9079400294393789
C 2.9155246657365286 1.7049115778421036 -0.6328624266712611
C 1.397121957045528 -0.9741397570354347 -1.5392203485837033
C 1.4124517310832267 -1.983544878312101 -1.055508683556892
C 0.6419560311653937 -0.8670942979485216 -2.300239903372076
C 2.4247706028141285 -0.8802135791280841 -1.9204071788064954
C 1.2143786236726137 2.4402175800986434 -0.03308086500649575
C 0.23168204856432045 2.3215557825212856 -0.005491864593231036
C 1.737460151227559 3.7781339142189707 -0.011929709631038109
C 2.1370506850160593 3.9957771437904257 -1.0759355921763207
C 0.8957528467525393 4.494064048130748 0.2449119160524114
C 2.468879504975732 3.8943833123369176 0.8334422283737696
C 0.1808383771244158 1.020470536437712 0.8420915753457084
C 1.3090729797337797 2.372855562991635 -0.3438538347577948
C -0.9228339875806671 -1.706138981752769 0.12449723117785658
C -0.8603964717633966 -1.5461150786742093 0.15139177000681495
26
Mode 10 - Frame 22
C -2.183061262349599 0.22676337342194733 1.504249380331274
C -2.7775989870922406 -0.29625573791048254 0.5959771027125637
C -3.015437656020149 1.4135440570895488 1.459965341767262
C -1.8711745844071397 -0.48900967843891996 2.501001199501914
C -0.818010211933793 0.6722147117671723 1.0259050783015282
C -0.24935390826562667 1.6324049912552705 1.5550528645627155
C -0.15925938394230713 -0.16556923699857098 0.2111114575061735
C 3.9215207140857213 2.6785039944387172 -1.7391570492831627
C 1.1626407786450155 0.0547931106604727 -0.3723800434778648
C 1.8690148408563205 -0.08464042121776558 0.4794384418773403
C 1.4123108966123723 1.4882779229561323 -0.9117814590886508
C 2.932892163902587 1.699699167983883 -0.6059703183123706
C 1.3862045455954803 -0.9694041792887998 -1.558227370049898
C 1.4079820431385668 -1.9812128803178126 -1.075638356451145
C 0.6251257804346186 -0.8581941477146595 -2.3132038021481374
C 2.413054216688278 -0.8762770557743549 -1.9435521984323811
C 1.2128420526676407 2.4399990129679443 -0.034592733452732026
C 0.23052496237895528 2.3207128411285463 -0.005742854910076677
C 1.7364757326614373 3.778002927781473 -0.012474923656136483
C 2.125901663618561 3.9983262822032626 -1.0836563210994448
C 0.8949189116295292 4.493701357638235 0.2561049304404633
C 2.4728957920534 3.892298529164347 0.8300804760775309
C 0.18219293161758335 1.0186530161071443 0.8409693259568761
C 1.306846186912507 2.3732338552323826 -0.34581614785491266
C -0.9181366964626787 -1.714774815937245 0.1399673057449504
C -0.8560393067188069 -1.554007219812674 0.1654296971975772
26
Mode 10 - Frame 23
C -2.183061262349599 0.2267633734219473 1.504249380331274
C -2.7775989870922406 -0.29625573791048265 0.5959771027125637
C -3.015437656020149 1.4135440570895488 1.4599653417672618
C -1.8711745844071397 -0.48900967843891996 2.5010011995019146
C -0.818010211933793 0.6722147117671723 1.0259050783015282
C -0.24935390826562667 1.6324049912552705 1.5550528645627155
C -0.15925938394230713 -0.16556923699857098 0.2111114575061735
C 3.9215207140857213 2.6785039944387172 -1.7391570492831627
C 1.1626407786450155 0.0547931106604727 -0.3723800434778648
C 1.8690148408563205 -0.08464042121776559 0.47943844187734025
C 1.4123108966123723 1.4882779229561323 -0.9117814590886508
C 2.9328921639025873 1.6996991679838829 -0.6059703183123705
C 1.3862045455954803 -0.9694041792887998 -1.558227370049898
C 1.4079820431385668 -1.9812128803178126 -1.0756383564511451
C 0.6251257804346186 -0.8581941477146595 -2.3132038021481374
C 2.413054216688278 -0.8762770557743549 -1.9435521984323811
C 1.2128420526676407 2.4399990129679443 -0.03459273345273203
C 0.23052496237895528 2.3207128411285463 -0.005742854910076678
C 1.7364757326614373 3.778002927781473 -0.012474923656136484
C 2.125901663618561 3.9983262822032626 -1.083656321099445
C 0.8949189116295292 4.493701357638235 0.2561049304404633
C 2.4728957920534 3.892298529164347 0.8300804760775308
C 0.18219293161758335 1.0186530161071443 0.8409693259568761
C 1.306846186912507 2.3732338552323826 -0.34581614785491266
C -0.9181366964626787 -1.714774815937245 0.13996730574495045
C -0.8560393067188069 -1.554007219812674 0.16542969719757725
26
Mode 10 - Frame 24
C -2.184889145856859 0.22784666687683347 1.50102126267285
C -2.779887555281218 -0.27386958862265365 0.5929702049943417
C -2.998968753328546 1.3946813488921372 1.4889644650907758
C -1.8854644659246917 -0.4994852459395761 2.4748020812594302
C -0.8179962259566718 0.671732876962472 1.027651846738084
C -0.25380175434365293 1.635927182201978 1.552151829776675
C -0.15883532766851502 -0.16493610635953584 0.21242515704130047
C 3.925032165929893 2.6725827581318553 -1.7315380622517298
C 1.1657286446722954 0.05522257095269211 -0.3640124626148534
C 1.8691627870677763 -0.0797584902388544 0.4891605465635439
C 1.4127825580661428 1.4865311782387072 -0.9079400294393789
C 2.9155246657365286 1.7049115778421036 -0.6328624266712611
C 1.397121957045528 -0.9741397570354347 -1.5392203485837035
C 1.4124517310832267 -1.983544878312101 -1.055508683556892
C 0.6419560311653936 -0.8670942979485216 -2.300239903372076
C 2.4247706028141285 -0.8802135791280841 -1.9204071788064954
C 1.2143786236726137 2.4402175800986434 -0.033080865006495756
C 0.23168204856432045 2.3215557825212856 -0.005491864593231037
C 1.737460151227559 3.7781339142189707 -0.011929709631038109
C 2.137050685016059 3.9957771437904257 -1.0759355921763207
C 0.8957528467525393 4.494064048130748 0.24491191605241142
C 2.468879504975732 3.8943833123369176 0.8334422283737696
C 0.1808383771244158 1.020470536437712 0.8420915753457084
C 1.3090729797337797 2.372855562991635 -0.3438538347577948
C -0.9228339875806671 -1.706138981752769 0.12449723117785658
C -0.8603964717633966 -1.5461150786742093 0.151391770006815
26
Mode 10 - Frame 25
C -2.1884650255909546 0.22996590866440852 1.4947061115879023
C -2.7843646702475455 -0.23007567219153643 0.5870878254168802
C -2.966750718019526 1.3577803233588568 1.5456953108953342
C -1.9134196925670195 -0.5199785483737598 2.4235488719589755
C -0.8179688652567417 0.6707902658461364 1.031069041448593
C -0.2625030542829623 1.642817627449675 1.546476549345453
C -0.15800574841494325 -0.1636975159284893 0.21499514113803958
C 3.93190160232283 2.6609990719579857 -1.7166330744820937
C 1.1717694221642383 0.056062722061581825 -0.3476430043246519
C 1.8694522135313225 -0.07020799209091433 0.50817985330933
C 1.4137052671048718 1.4831140299298196 -0.900425059049733
C 2.88154871241277 1.715108590235823 -0.685471329211106
C 1.4184796366777042 -0.9834039450573533 -1.5020370036951944
C 1.421195760161423 -1.9881069547981598 -1.0161291010667521
C 0.6748809699095056 -0.8845056191433669 -2.2748786904041554
C 2.4476913127706723 -0.8879145808754497 -1.8751286879745017
C 1.217384610156357 2.4406451619276286 -0.03012320401987343
C 0.2339456507164348 2.3232048247230193 -0.005000853440771075
C 1.739385964544698 3.7783901623581047 -0.010863110049965315
C 2.158861462077045 3.990790276545516 -1.0608315672321806
C 0.8973842700320194 4.49477357780087 0.2230150757151076
C 2.4610224618379735 3.8984617636535184 0.8400188082594242
C 0.17818846866930574 1.0240261427389714 0.844287026439931
C 1.3134292438446984 2.3721155116963084 -0.340014971062126
C -0.9320232756546846 -1.6892447407770088 0.0942331985359047
C -0.86892037283213 -1.5306757208357253 0.12392944040497503
26
Mode 10 - Frame 26
C -2.1936326184485306 0.23302847774930513 1.4855799294823002
C -2.7908346605836134 -0.16678799291169702 0.5785870521945031
C -2.9201916328353787 1.3044537323762784 1.627678468994476
C -1.9538184867857928 -0.5495939300873218 2.349481582787165
C -0.8179293256278809 0.6694280750470997 1.0360073146266864
C -0.2750775195227373 1.6527751814770122 1.538275060256911
C -0.15680690277573586 -0.1619075980506844 0.21870908915921144
C 3.941828795930949 2.644259198587599 -1.6950935054618537
C 1.1804991001575793 0.057276845352191054 -0.323987092483918
C 1.8698704709216798 -0.05640632937138507 0.5356651271451482
C 1.415038696915917 1.4781758238078646 -0.8895649881865693
C 2.8324492161262733 1.7298445467927412 -0.761497764445391
C 1.449344151406565 -0.9967918538834915 -1.4483024259814843
C 1.433831974343931 -1.994699725142276 -0.9592206856997468
C 0.722461618852452 -0.9096671530141918 -2.2382285699476756
C 2.4808146015470385 -0.8990434902865856 -1.8096956132560627
C 1.221728636085207 2.441263071077208 -0.02584901447041249
C 0.23721683855928272 2.3255878966765495 -0.004291280996192208
C 1.7421690053298182 3.77876047292558 -0.00932174043272362
C 2.1903807591842326 3.9835836304967804 -1.0390043646342364
C 0.8997418804422185 4.495798936797314 0.19137140642398953
C 2.4496680531275206 3.904355635221033 0.84952278763556
C 0.174359019967413 1.0291644379538654 0.8474597274917831
C 1.3197245895999412 2.371046045139168 -0.3344673335323189
C -0.9453029447007999 -1.6648304524081676 0.05049789126848894
C -0.881238474546088 -1.5083639203210228 0.08424294397453594
26
Mode 10 - Frame 27
C -2.200166075824849 0.23690052516667626 1.474041574306339
C -2.799014756665278 -0.08677252605564365 0.567839409908264
C -2.8613263532139306 1.237032203859715 1.7313308819804294
C -2.0048952274187286 -0.5870370567890109 2.255837309695094
C -0.8178793351416028 0.6677058388397963 1.0422508400380182
C -0.29097558559302095 1.6653646513913494 1.5279058069393296
C -0.15529118605802583 -0.1596445807263601 0.2234046837547909
C 3.954379880757614 2.6230947508138067 -1.6678607377155144
C 1.1915361498343673 0.05881187781071023 -0.29407860395375096
C 1.870399279383868 -0.0389567009688357 0.5704151297153963
C 1.41672457021803 1.471932383176514 -0.87583445405901
C 2.770372060470281 1.7484754155003566 -0.8576190123390657
C 1.4883665738340857 -1.0137183676558328 -1.3803650743357738
C 1.4498081104356924 -2.00303505364479 -0.8872706082842885
C 0.7826184753181405 -0.9414792197924061 -2.1918913281333747
C 2.5226928224805265 -0.9131139206177926 -1.7269676939991028
C 1.2272208466811243 2.4420443019524876 -0.020445098951261394
C 0.24135264548723084 2.3286008467022596 -0.0033941589802288976
C 1.7456876413460987 3.779228661572651 -0.007372966027898522
C 2.2302310318076706 3.974472170657873 -1.011407937874557
C 0.9027226390951413 4.497095312011719 0.15136388837025128
C 2.435312520989518 3.911807336570027 0.861538796998287
C 0.16951739630274396 1.0356608539252272 0.8514710162409901
C 1.3276838801815836 2.369693904140632 -0.32745338054894435
C -0.9620926094587756 -1.6339631382007174 -0.004797247831515916
C -0.8968124167515603 -1.4801548098764918 0.034066771046446565
26
Mode 10 - Frame 28
C -2.207779854281558 0.24141282386423796 1.460595327548379
C -2.8085474490413143 0.00647366851820555 0.5553146220989811
C -2.7927275743415887 1.1584623821297282 1.852122442026248
C -2.0644176158067737 -0.6306714841699073 2.146708756771962
C -0.8178210786220388 0.6656988272106916 1.0495267456623536
C -0.3095024307191572 1.6800358169464509 1.5158219755198847
C -0.15352484235559283 -0.1570073686717513 0.22887670490898845
C 3.969006314169113 2.5984307165626115 -1.6361249738709085
C 1.204398199162086 0.06060073115279911 -0.25922468319976977
C 1.871015527450585 -0.018621739377064548 0.6109111191587422
C 1.4186892062581906 1.4646565763507096 -0.8598335468948419
C 2.6980303150262013 1.770186937995319 -0.9696341131182559
C 1.5338414368498259 -1.0334437165001016 -1.301194137024562
C 1.468425934627491 -2.012748646452798 -0.803423432458209
C 0.852722396014397 -0.9785514795085692 -2.1378921247792935
C 2.571495696362343 -0.9295109265461817 -1.6305605372477507
C 1.2336212059865166 2.4429547110154566 -0.014147634501470642
C 0.24617231689172445 2.332111994426287 -0.0023486959298477804
C 1.7497880913153385 3.779774266208822 -0.005101957628237965
C 2.27667063181089 3.9638541115453894 -0.9792483832248879
C 0.906196272534388 4.498606045626516 0.10474104207021205
C 2.4185832710638824 3.9204911925943198 0.8755416790792439
C 0.16387519986213256 1.043231466101846 0.8561455801209127
C 1.336959256398294 2.3681181837506275 -0.31927965551405635
C -0.9816584810129384 -1.5979918479033302 -0.06923555584992425
C -0.9149615434421022 -1.447281262990888 -0.024406138850345066
26
Mode 10 - Frame 29
C -2.216141195165137 0.24636816473649528 1.4458288547139937
C -2.819016113311956 0.10887528466208818 0.54156008209452
C -2.717393392028537 1.0721781454157526 1.9847739783357161
C -2.129784237957262 -0.6785901783722527 2.026865365437406
C -0.8177571021586395 0.6634947561986878 1.0575170395102411
C -0.3298483428674672 1.6961474778074959 1.5025516874162625
C -0.15158506936409066 -0.15411122070839187 0.2348859990396949
C 3.98506885083995 2.571345032481957 -1.601273219093136
C 1.2185231148661542 0.0625652239035377 -0.22094861380659114
C 1.871692282124229 0.003709820004396097 0.6553832264151942
C 1.4208467410140744 1.4566663910019337 -0.8422615831180107
C 2.6185856612041496 1.794030216561155 -1.0926474693708217
C 1.5837812707273946 -1.0551058080190778 -1.2142497639126566
C 1.4888717586639126 -2.023415972949601 -0.7113436821484974
C 0.929709503210861 -1.0192636965206459 -2.078590984188931
C 2.6250903034216817 -0.947517880231118 -1.5246875983649049
C 1.2406499875874069 2.4439545090214354 -0.007231850536083243
C 0.2514652100050378 2.3359678858447355 -0.0012005835970388245
C 1.7542911458977404 3.7803734412933903 -0.0026079691983144832
C 2.3276699258318265 3.9521935132936448 -0.9439312275420843
C 0.9100109663103209 4.500265111333434 0.05354050962842174
C 2.4002114518482114 3.9300276771158846 0.8909194407382096
C 0.15767902170429596 1.0515454024037756 0.861279118258952
C 1.3471453398012092 2.3663877505113438 -0.3103033894335639
C -1.0031454368889028 -1.558488699511404 -0.14000076951702323
C -0.9348926506921645 -1.4111800114078918 -0.08862023896919695
26
Mode 10 - Frame 30
C -2.224884667756808 0.25154997560896686 1.430387521523444
C -2.8299632186143517 0.21595688037304395 0.5271769292946815
C -2.638616271535371 0.9819505288998948 2.123487982239415
C -2.1981382588183624 -0.7286988625199979 1.901544866965142
C -0.8176902018298486 0.6611899542833156 1.0658725073988435
C -0.35112410804655136 1.71299547708253 1.4886749178964989
C -0.1495566444713115 -0.15108271239954044 0.24116993115760582
C 4.001865480841006 2.543021472937701 -1.5648286623032603
C 1.233293570351438 0.06461949830303662 -0.18092324367565604
C 1.8723999659781325 0.02706198087186522 0.7018878069967981
C 1.4231028798638485 1.4483110365710914 -0.8238865418652013
C 2.5355102115938952 1.8189631855117925 -1.2212828071449504
C 1.6360034650884312 -1.0777579048671342 -1.1233318413104383
C 1.5102520019246164 -2.0345708197797756 -0.615055684291353
C 1.0102150908979186 -1.0618365515863157 -2.0165796507645313
C 2.6811343021545913 -0.9663477913896193 -1.413976032814473
C 1.248 2.445 -3.9413205051628886e-17
C 0.25699999999999995 2.34 -6.543117457366753e-18
C 1.759 3.781 -1.4213294960762692e-17
C 2.3809999999999993 3.94 -0.9070000000000003
C 0.914 4.502 2.917929614314981e-16
C 2.381 3.94 0.9069999999999999
C 0.1511996645472932 1.0602393039199292 0.8666472704050266
C 1.3577969496673705 2.364578232658877 -0.3009168882080881
C -1.0256143940090352 -1.5171801701668028 -0.21400010942639025
C -0.9557346534748556 -1.3734288530547059 -0.15576906500147542
