26
Mode 9 - Frame 1
C -2.231080671896521 0.24364083268615963 1.427736688481833
C -2.8470599974673 0.2549411184038617 0.5320031349137945
C -2.595435559401443 0.9212689312826299 2.206926517343059
C -2.2144519577488677 -0.7630583584768773 1.8461104989938464
C -0.8423038186364193 0.6771555233316361 1.0311237077486965
C -0.39380854207382393 1.740923882654169 1.4451176648144273
C -0.17306104962352004 -0.12879998980025967 0.2018093944921031
C 3.937715002154263 2.5870172963444134 -1.6937192584180578
C 1.2335901168483234 0.0678159442704367 -0.157082562537048
C 1.852562964707385 0.041536174668419634 0.7392969984086272
C 1.4377104475027827 1.4438410613636792 -0.8159584078730159
C 2.5954870271679527 1.792010613757486 -1.1284783995796284
C 1.6669032179568122 -1.089981791684144 -1.0661285217891505
C 1.5167821734584588 -2.03935561738375 -0.555323351962735
C 1.0667086201040272 -1.083866534857607 -1.9826263019771548
C 2.7181760096429604 -0.9813802262303161 -1.3338606921738356
C 1.2391690301729532 2.4535777859146917 -0.014351181504919649
C 0.2496851079962481 2.349359014963889 -0.02064586836422675
C 1.7741854644619452 3.7812749887877404 -0.021246780438622635
C 2.2482669994242435 3.968256150613262 -1.032613940875153
C 0.9411595898869187 4.510155862566334 0.15475603624829334
C 2.4791506121596956 3.9111835549440506 0.8363966548162761
C 0.13178958371207494 1.0744655920000943 0.8536532655691975
C 1.3475527481865084 2.371017949384497 -0.3154926958328411
C -1.0455137801942247 -1.4902650676808327 -0.2712992260386489
C -0.9753130146304207 -1.3480790173699047 -0.20959375852856285
26
Mode 9 - Frame 2
C -2.2370058809236024 0.23607735726135748 1.4252017095642484
C -2.863409565044927 0.2922215581656033 0.5366184121886484
C -2.5541420515918145 0.8632394106638513 2.286718388080159
C -2.230052669754297 -0.7959161795852867 1.7930988789065072
C -0.8658417022793055 0.6924233204012448 0.9978935973865016
C -0.4346274615114654 1.767631682886969 1.4034640727029322
C -0.19553819948392762 -0.10749112910293361 0.16416910215169284
C 3.87636820721428 2.629090291152869 -1.8169767169969386
C 1.233873702840307 0.07087269021081188 -0.13428383356447796
C 1.833592935580662 0.055377776741176776 0.7750712286465425
C 1.451679594341009 1.4395664455221517 -0.8083767713796968
C 2.6528425681007315 1.7662359987216312 -1.0397299899498658
C 1.6964525033513798 -1.1016714359905335 -1.0114252618229247
C 1.5230269451610323 -2.043931296372424 -0.49820160918440926
C 1.1207331109977987 -1.1049337021483545 -1.9501568774580311
C 2.753598816768254 -0.9957556715348488 -1.2572467763552515
C 1.2307240161030433 2.461780681424128 -0.028075147513465043
C 0.24268991187380637 2.35830899606432 -0.04038941321106875
C 1.7887072512589608 3.781537959245914 -0.04156497461871336
C 2.1213350678972502 3.9952773718566705 -1.152737949771498
C 0.9671321753696074 4.5179552748023495 0.30274849111068397
C 2.573011571589121 3.883626526813691 0.7688790146095196
C 0.11322781654925734 1.0880701230258518 0.8412271610968473
C 1.3377562674674925 2.3771762195880184 -0.32943147072190754
C -1.064543467715272 -1.4645262843264906 -0.32609409630328456
C -0.9940357074560875 -1.3238370911465374 -0.26106605466898103
26
Mode 9 - Frame 3
C -2.242401334771261 0.22919010950420615 1.4228933755135673
C -2.8782973667901617 0.3261688655492836 0.5408210513557745
C -2.5165404725459997 0.8103981355511337 2.35937630681563
C -2.2442585688594914 -0.8258362813934699 1.7448268688789164
C -0.8872751342960159 0.706326069497181 0.9676344915908475
C -0.471796883709144 1.7919516187525117 1.3655346034133962
C -0.2160057347463029 -0.08808742977129358 0.12989411552981292
C 3.820506245334518 2.66740166560131 -1.9292140956450985
C 1.2341319342587425 0.07365614165867339 -0.11352347061448638
C 1.8163189598991007 0.06798184266018141 0.807646992185345
C 1.4643998016302933 1.4356740102706664 -0.8014729862807303
C 2.7050701220310494 1.74276581476162 -0.958916309618602
C 1.7233598757071886 -1.1123159442369768 -0.9616128563676496
C 1.5287133905431955 -2.0480978776174497 -0.44618695021632115
C 1.1699274340889063 -1.124117317156468 -1.9205904468642305
C 2.7858545768816105 -1.0088458513623697 -1.1874826811143486
C 1.2230340454287985 2.4692501806326863 -0.040572094856167355
C 0.23632013526990064 2.3664587861804294 -0.0583677468906796
C 1.8019306886247521 3.781777418303626 -0.06006657995708939
C 2.005751739913734 4.019882706699683 -1.2621220310813175
C 0.9907826298321798 4.525057364967599 0.43750938416309754
C 2.658480703966357 3.8585332899715103 0.7073979242423489
C 0.09632560135309637 1.1004583137095938 0.8299120373804821
C 1.3288356607264737 2.3827838973108877 -0.3421240215269723
C -1.081871767912936 -1.441088728444747 -0.3759899214547734
C -1.0110844604339264 -1.3017625628862324 -0.3079363670899139
26
Mode 9 - Frame 4
C -2.2470312262160936 0.2232800951903746 1.4209125716044202
C -2.891072734327138 0.35529938032498176 0.5444273769170691
C -2.4842741917006954 0.7650545232274728 2.421724773849354
C -2.256448789106087 -0.8515110118798318 1.7034041873840833
C -0.9056673708584025 0.7182561537711606 0.9416688584843035
C -0.5036923265581448 1.8128207923534732 1.3329869567595591
C -0.23356912590554915 -0.07143692657541198 0.10048241601147295
C 3.7725705523045545 2.700277028787968 -2.0255260823409165
C 1.2343535251515123 0.07604464842926774 -0.09570880116726196
C 1.8014959932897174 0.07879751426375449 0.8356005718425323
C 1.4753151352737675 1.4323338737076894 -0.7955487811129777
C 2.749887094236541 1.722625821538943 -0.8895693042033759
C 1.7464493537363919 -1.1214501003350867 -0.9188683465681613
C 1.533592984655156 -2.0516732615249436 -0.4015526652494019
C 1.2121415613977162 -1.140578963852895 -1.8952192050881769
C 2.813533558485766 -1.020078662040764 -1.1276174321784254
C 1.216435206769257 2.475659830582319 -0.0512958469671439
C 0.23085416798770098 2.3734522003771117 -0.07379512995164382
C 1.813277848893342 3.781982900451003 -0.07594298751991119
C 1.9065685615369174 4.040996783940164 -1.3559855755683152
C 1.0110773149271497 4.531151737642252 0.5531490177246333
C 2.7318225980801176 3.837000539278221 0.6546404023828131
C 0.08182164603349133 1.1110887406733063 0.8202024196224952
C 1.3211808012838555 2.387595900127993 -0.3530156228722379
C -1.0967413509181685 -1.4209767336935046 -0.4188060145072622
C -1.0257141612498124 -1.2828201953993044 -0.34815623822985436
26
Mode 9 - Frame 5
C -2.2506932067852774 0.21860561030477232 1.4193458684725886
C -2.901177322791475 0.3783399592132811 0.5472797751404338
C -2.4587534003596354 0.729190307134205 2.4710388619908206
C -2.2660905593741405 -0.8718182621210926 1.670641204371411
C -0.9202145829729463 0.7276921712935148 0.9211315208305569
C -0.5289198061546511 1.8293271206620858 1.3072436210811307
C -0.247460768489506 -0.058267326402927686 0.07721943599861708
C 3.7346561479307754 2.7262795695880913 -2.101703381109597
C 1.2345287909332914 0.07793382131539285 -0.0816184117619167
C 1.7897718705218273 0.08735209480346941 0.8577102620509283
C 1.4839485428136294 1.4296920158287767 -0.7908630720697599
C 2.7853347679761344 1.7066962333998403 -0.834719770604684
C 1.7647118164535054 -1.1286746978328321 -0.8850598726136124
C 1.5374524658193298 -2.054501186661553 -0.3662494867157678
C 1.2455305329949764 -1.1535991892852568 -1.875151997140209
C 2.8354260572661296 -1.0289631758423803 -1.0802674281913172
C 1.2112159010385815 2.480729498813315 -0.05977772442087319
C 0.22653089902606052 2.3789835928958474 -0.08599731172540002
C 1.822252806711277 3.782145425132191 -0.08850032211322757
C 1.8281203135955613 4.057696817086121 -1.4302262959311511
C 1.0271292555311633 4.5359720394963805 0.6446133849081255
C 2.7898318612241777 3.819969359264722 0.6129122058948511
C 0.07034984303560833 1.119496803248227 0.8125226647108257
C 1.3151262432293707 2.391401920425675 -0.36163025951521455
C -1.1085023446014655 -1.405069290751451 -0.45267110673994804
C -1.0372854217769982 -1.267837861040496 -0.3799678667236328
26
Mode 9 - Frame 6
C -2.2532272303558067 0.2153709522675673 1.4182617385628091
C -2.908169513180086 0.39428361835579895 0.5492535825361823
C -2.441093479566768 0.7043729256102083 2.505163308952997
C -2.2727624880365918 -0.8858705078367111 1.6479698194127883
C -0.9302809876649732 0.7342217228194811 0.9069200588341565
C -0.5463767605854173 1.8407491979251123 1.2894297036774878
C -0.25707353105775765 -0.04915420397613124 0.06112187934597019
C 3.7084200736178117 2.74427285219468 -2.154416678455714
C 1.2346500716483977 0.07924109439666781 -0.07186812002865413
C 1.7816589920189698 0.09327170806030878 0.8730097632543612
C 1.4899227029127016 1.4278638985002774 -0.7876206471207924
C 2.809863909810599 1.6956732497846363 -0.7967648966380532
C 1.7773491066047726 -1.1336739871520964 -0.861665027046874
C 1.5401231561889979 -2.056458059128918 -0.34182033292078434
C 1.2686350906038244 -1.162608947124186 -1.8612658563008009
C 2.850575265974135 -1.0351110968814607 -1.0475020915377886
C 1.2076042369422102 2.484237616497011 -0.06564702847206355
C 0.22353927598394907 2.3828112153410013 -0.09444099831587058
C 1.8284633133552874 3.782257889238743 -0.09718976795853383
C 1.7738355609611611 4.069252934553426 -1.481599516443468
C 1.0382369048140685 4.539307600208586 0.7079050539729267
C 2.8299732102398134 3.8081840942222716 0.5840370571990892
C 0.06241156519827311 1.1253150287534714 0.807208414786666
C 1.3109365998029932 2.394035616853613 -0.36759143049699106
C -1.1166407371033578 -1.3940616312075347 -0.47610513111952046
C -1.0452925224053773 -1.2574703597145036 -0.4019809317569415
26
Mode 9 - Frame 7
C -2.2545225479380555 0.21371749115659672 1.4177075635543717
C -2.911743713220737 0.4024335433418424 0.5502625342497415
C -2.4320662526024437 0.6916870173150909 2.5226067126563727
C -2.2761729797954255 -0.8930535984587584 1.636380880820282
C -0.9354266347454727 0.7375594356151102 0.8996555815785057
C -0.555300237174058 1.8465878245569507 1.2803237582198292
C -0.261987289758919 -0.04449584647468678 0.05289328652389991
C 3.6950089717077925 2.7534704838164776 -2.181362150338777
C 1.2347120667476112 0.07990933356644864 -0.06688406050330852
C 1.7775119295016304 0.09629763852949283 0.8808304138350892
C 1.4929765161074537 1.4269294192217268 -0.785963215795226
C 2.822402478537886 1.6900386279714585 -0.7773634924235168
C 1.783808913970137 -1.1362294753603759 -0.8497062768801364
C 1.5414883337796113 -2.057458354210098 -0.329332875109378
C 1.280445454188786 -1.1672144677185063 -1.8541676735577308
C 2.858319091495273 -1.038253731507599 -1.0307534246551278
C 1.2057580615318417 2.4860308620568143 -0.06864724236963239
C 0.22201004714370703 2.38476778224475 -0.09875716010174834
C 1.8316379398837128 3.7823153775495397 -0.10163155457580275
C 1.7460868078109846 4.075160078556354 -1.5078599808528153
C 1.043914805201787 4.541012639769948 0.7402578752737815
C 2.8504922755554785 3.8021598167852013 0.5692769388518684
C 0.05835375335506053 1.1282891328155165 0.8044919280723027
C 1.3087949785265958 2.395381884240029 -0.37063860404079185
C -1.1208008416191726 -1.3884348426044348 -0.48808390833166737
C -1.049385514415158 -1.252170800978064 -0.4132333567574191
26
Mode 9 - Frame 8
C -2.2545225479380555 0.21371749115659672 1.4177075635543717
C -2.911743713220737 0.4024335433418424 0.5502625342497415
C -2.4320662526024437 0.6916870173150909 2.5226067126563727
C -2.2761729797954255 -0.8930535984587584 1.636380880820282
C -0.9354266347454727 0.7375594356151102 0.8996555815785057
C -0.555300237174058 1.8465878245569507 1.2803237582198292
C -0.26198728975891905 -0.04449584647468678 0.05289328652389991
C 3.6950089717077925 2.7534704838164776 -2.181362150338777
C 1.2347120667476112 0.07990933356644864 -0.0668840605033085
C 1.7775119295016304 0.09629763852949284 0.8808304138350892
C 1.4929765161074537 1.4269294192217268 -0.785963215795226
C 2.822402478537886 1.6900386279714585 -0.7773634924235167
C 1.783808913970137 -1.1362294753603759 -0.8497062768801364
C 1.5414883337796113 -2.057458354210098 -0.329332875109378
C 1.280445454188786 -1.1672144677185063 -1.8541676735577308
C 2.858319091495273 -1.038253731507599 -1.0307534246551278
C 1.2057580615318417 2.4860308620568143 -0.0686472423696324
C 0.222010047143707 2.38476778224475 -0.09875716010174836
C 1.8316379398837128 3.7823153775495397 -0.10163155457580277
C 1.7460868078109844 4.075160078556354 -1.5078599808528155
C 1.043914805201787 4.541012639769948 0.7402578752737816
C 2.8504922755554785 3.8021598167852013 0.5692769388518684
C 0.05835375335506052 1.1282891328155165 0.8044919280723027
C 1.3087949785265958 2.395381884240029 -0.37063860404079185
C -1.1208008416191726 -1.3884348426044348 -0.48808390833166737
C -1.049385514415158 -1.252170800978064 -0.4132333567574191
26
Mode 9 - Frame 9
C -2.2532272303558067 0.2153709522675673 1.4182617385628091
C -2.908169513180086 0.39428361835579895 0.5492535825361823
C -2.441093479566768 0.7043729256102083 2.505163308952997
C -2.2727624880365918 -0.8858705078367111 1.6479698194127883
C -0.9302809876649732 0.7342217228194811 0.9069200588341565
C -0.5463767605854173 1.8407491979251123 1.2894297036774878
C -0.25707353105775765 -0.049154203976131225 0.06112187934597016
C 3.7084200736178117 2.7442728521946806 -2.154416678455714
C 1.2346500716483977 0.07924109439666781 -0.07186812002865411
C 1.7816589920189698 0.0932717080603088 0.8730097632543612
C 1.4899227029127016 1.4278638985002774 -0.7876206471207923
C 2.809863909810599 1.6956732497846363 -0.796764896638053
C 1.7773491066047726 -1.1336739871520964 -0.8616650270468739
C 1.5401231561889979 -2.056458059128918 -0.3418203329207843
C 1.2686350906038244 -1.162608947124186 -1.8612658563008009
C 2.850575265974135 -1.0351110968814607 -1.0475020915377884
C 1.2076042369422102 2.484237616497011 -0.06564702847206356
C 0.22353927598394907 2.3828112153410013 -0.09444099831587059
C 1.8284633133552874 3.782257889238743 -0.09718976795853383
C 1.7738355609611611 4.069252934553426 -1.481599516443468
C 1.0382369048140685 4.539307600208586 0.7079050539729268
C 2.8299732102398134 3.8081840942222716 0.5840370571990892
C 0.06241156519827311 1.1253150287534714 0.807208414786666
C 1.3109365998029932 2.394035616853613 -0.36759143049699106
C -1.1166407371033578 -1.3940616312075347 -0.47610513111952046
C -1.0452925224053775 -1.2574703597145036 -0.4019809317569415
26
Mode 9 - Frame 10
C -2.2506932067852774 0.21860561030477232 1.4193458684725886
C -2.901177322791475 0.3783399592132811 0.5472797751404338
C -2.4587534003596354 0.7291903071342049 2.4710388619908206
C -2.2660905593741405 -0.8718182621210926 1.670641204371411
C -0.9202145829729463 0.7276921712935148 0.9211315208305569
C -0.5289198061546511 1.8293271206620858 1.3072436210811307
C -0.24746076848950602 -0.05826732640292767 0.07721943599861705
C 3.7346561479307754 2.7262795695880913 -2.101703381109597
C 1.2345287909332914 0.07793382131539286 -0.08161841176191668
C 1.7897718705218273 0.08735209480346941 0.8577102620509283
C 1.4839485428136294 1.4296920158287767 -0.7908630720697599
C 2.7853347679761344 1.7066962333998403 -0.834719770604684
C 1.7647118164535054 -1.1286746978328321 -0.8850598726136124
C 1.5374524658193298 -2.054501186661553 -0.36624948671576774
C 1.2455305329949764 -1.1535991892852568 -1.875151997140209
C 2.8354260572661296 -1.0289631758423805 -1.0802674281913172
C 1.2112159010385815 2.480729498813315 -0.059777724420873195
C 0.2265308990260605 2.3789835928958474 -0.08599731172540004
C 1.822252806711277 3.782145425132191 -0.08850032211322757
C 1.8281203135955613 4.057696817086121 -1.4302262959311514
C 1.0271292555311633 4.5359720394963805 0.6446133849081255
C 2.7898318612241777 3.819969359264722 0.612912205894851
C 0.07034984303560832 1.119496803248227 0.8125226647108256
C 1.3151262432293707 2.391401920425675 -0.36163025951521455
C -1.1085023446014655 -1.405069290751451 -0.45267110673994804
C -1.0372854217769982 -1.267837861040496 -0.37996786672363286
26
Mode 9 - Frame 11
C -2.2470312262160936 0.2232800951903746 1.4209125716044202
C -2.891072734327138 0.3552993803249818 0.5444273769170691
C -2.4842741917006954 0.7650545232274728 2.4217247738493546
C -2.256448789106087 -0.8515110118798319 1.7034041873840833
C -0.9056673708584025 0.7182561537711606 0.9416688584843034
C -0.5036923265581449 1.8128207923534732 1.3329869567595591
C -0.23356912590554918 -0.07143692657541195 0.1004824160114729
C 3.7725705523045545 2.700277028787968 -2.0255260823409165
C 1.2343535251515123 0.07604464842926774 -0.09570880116726192
C 1.8014959932897174 0.07879751426375452 0.8356005718425323
C 1.4753151352737675 1.4323338737076894 -0.7955487811129777
C 2.749887094236541 1.7226258215389427 -0.8895693042033757
C 1.7464493537363919 -1.1214501003350867 -0.9188683465681613
C 1.533592984655156 -2.0516732615249436 -0.4015526652494018
C 1.2121415613977164 -1.140578963852895 -1.8952192050881769
C 2.813533558485766 -1.020078662040764 -1.1276174321784251
C 1.216435206769257 2.475659830582319 -0.05129584696714392
C 0.23085416798770098 2.3734522003771117 -0.07379512995164385
C 1.813277848893342 3.781982900451003 -0.07594298751991121
C 1.9065685615369172 4.040996783940164 -1.3559855755683152
C 1.0110773149271497 4.531151737642252 0.5531490177246335
C 2.7318225980801176 3.837000539278221 0.654640402382813
C 0.0818216460334913 1.1110887406733063 0.8202024196224952
C 1.3211808012838555 2.387595900127993 -0.353015622872238
C -1.0967413509181685 -1.4209767336935044 -0.4188060145072623
C -1.0257141612498124 -1.2828201953993044 -0.3481562382298544
26
Mode 9 - Frame 12
C -2.242401334771261 0.22919010950420615 1.4228933755135673
C -2.8782973667901617 0.32616886554928365 0.5408210513557745
C -2.5165404725459997 0.8103981355511337 2.35937630681563
C -2.2442585688594914 -0.82583628139347 1.7448268688789164
C -0.8872751342960159 0.706326069497181 0.9676344915908475
C -0.471796883709144 1.7919516187525117 1.3655346034133962
C -0.2160057347463029 -0.08808742977129357 0.1298941155298129
C 3.820506245334518 2.66740166560131 -1.9292140956450987
C 1.2341319342587425 0.07365614165867339 -0.11352347061448637
C 1.8163189598991007 0.06798184266018142 0.807646992185345
C 1.4643998016302933 1.4356740102706664 -0.8014729862807303
C 2.7050701220310494 1.74276581476162 -0.958916309618602
C 1.7233598757071886 -1.1123159442369768 -0.9616128563676495
C 1.5287133905431958 -2.0480978776174497 -0.44618695021632115
C 1.1699274340889065 -1.124117317156468 -1.9205904468642305
C 2.7858545768816105 -1.0088458513623697 -1.1874826811143486
C 1.2230340454287985 2.4692501806326863 -0.04057209485616736
C 0.23632013526990064 2.3664587861804294 -0.05836774689067961
C 1.8019306886247521 3.781777418303626 -0.0600665799570894
C 2.005751739913734 4.019882706699683 -1.2621220310813175
C 0.9907826298321798 4.525057364967599 0.4375093841630976
C 2.658480703966357 3.8585332899715103 0.7073979242423489
C 0.09632560135309634 1.1004583137095938 0.8299120373804821
C 1.3288356607264737 2.3827838973108877 -0.3421240215269723
C -1.081871767912936 -1.441088728444747 -0.37598992145477345
C -1.0110844604339264 -1.3017625628862324 -0.3079363670899139
26
Mode 9 - Frame 13
C -2.2370058809236024 0.23607735726135748 1.4252017095642484
C -2.863409565044927 0.2922215581656033 0.5366184121886484
C -2.5541420515918145 0.8632394106638515 2.286718388080159
C -2.230052669754297 -0.7959161795852867 1.7930988789065072
C -0.8658417022793055 0.6924233204012448 0.9978935973865017
C -0.4346274615114654 1.767631682886969 1.4034640727029322
C -0.19553819948392762 -0.10749112910293362 0.16416910215169286
C 3.87636820721428 2.629090291152869 -1.8169767169969386
C 1.233873702840307 0.07087269021081188 -0.13428383356447798
C 1.833592935580662 0.05537777674117676 0.7750712286465425
C 1.451679594341009 1.4395664455221517 -0.8083767713796968
C 2.6528425681007315 1.7662359987216312 -1.039729989949866
C 1.6964525033513798 -1.1016714359905335 -1.0114252618229247
C 1.5230269451610323 -2.043931296372424 -0.4982016091844093
C 1.1207331109977985 -1.1049337021483545 -1.9501568774580311
C 2.753598816768254 -0.9957556715348488 -1.2572467763552515
C 1.2307240161030433 2.461780681424128 -0.028075147513465033
C 0.24268991187380637 2.35830899606432 -0.04038941321106874
C 1.7887072512589608 3.781537959245914 -0.041564974618713356
C 2.1213350678972502 3.9952773718566705 -1.152737949771498
C 0.9671321753696074 4.5179552748023495 0.30274849111068386
C 2.573011571589121 3.883626526813691 0.7688790146095196
C 0.11322781654925734 1.0880701230258518 0.8412271610968473
C 1.3377562674674925 2.3771762195880184 -0.32943147072190754
C -1.064543467715272 -1.4645262843264908 -0.32609409630328456
C -0.9940357074560875 -1.3238370911465374 -0.261066054668981
26
Mode 9 - Frame 14
C -2.231080671896521 0.24364083268615963 1.427736688481833
C -2.8470599974673 0.2549411184038617 0.5320031349137945
C -2.595435559401443 0.9212689312826299 2.206926517343059
C -2.2144519577488677 -0.7630583584768773 1.8461104989938464
C -0.8423038186364193 0.6771555233316361 1.0311237077486965
C -0.39380854207382393 1.740923882654169 1.4451176648144273
C -0.17306104962352004 -0.12879998980025967 0.2018093944921031
C 3.937715002154263 2.5870172963444134 -1.6937192584180578
C 1.2335901168483234 0.0678159442704367 -0.157082562537048
C 1.852562964707385 0.041536174668419634 0.7392969984086272
C 1.4377104475027827 1.4438410613636792 -0.8159584078730159
C 2.5954870271679527 1.792010613757486 -1.1284783995796284
C 1.6669032179568122 -1.089981791684144 -1.0661285217891505
C 1.5167821734584588 -2.03935561738375 -0.555323351962735
C 1.0667086201040272 -1.083866534857607 -1.9826263019771548
C 2.7181760096429604 -0.9813802262303161 -1.3338606921738356
C 1.2391690301729532 2.4535777859146917 -0.014351181504919649
C 0.2496851079962481 2.349359014963889 -0.02064586836422675
C 1.7741854644619452 3.7812749887877404 -0.021246780438622635
C 2.2482669994242435 3.968256150613262 -1.032613940875153
C 0.9411595898869187 4.510155862566334 0.15475603624829334
C 2.4791506121596956 3.9111835549440506 0.8363966548162761
C 0.13178958371207494 1.0744655920000943 0.8536532655691975
C 1.3475527481865084 2.371017949384497 -0.3154926958328411
C -1.0455137801942247 -1.4902650676808327 -0.2712992260386489
C -0.9753130146304207 -1.3480790173699047 -0.20959375852856285
26
Mode 9 - Frame 15
C -2.224884667756808 0.2515499756089669 1.430387521523444
C -2.8299632186143517 0.21595688037304464 0.5271769292946814
C -2.6386162715353705 0.9819505288998942 2.1234879822394164
C -2.198138258818363 -0.7286988625199983 1.9015448669651411
C -0.8176902018298488 0.6611899542833156 1.0658725073988435
C -0.3511241080465516 1.71299547708253 1.4886749178964986
C -0.14955664447131156 -0.15108271239954035 0.24116993115760574
C 4.001865480841006 2.543021472937701 -1.5648286623032606
C 1.233293570351438 0.06461949830303665 -0.18092324367565576
C 1.8723999659781325 0.027061980871865385 0.7018878069967984
C 1.4231028798638485 1.4483110365710914 -0.8238865418652012
C 2.535510211593895 1.8189631855117927 -1.2212828071449509
C 1.6360034650884314 -1.0777579048671344 -1.1233318413104376
C 1.5102520019246166 -2.0345708197797756 -0.6150556842913524
C 1.0102150908979193 -1.061836551586316 -2.016579650764531
C 2.6811343021545917 -0.9663477913896195 -1.4139760328144722
C 1.248 2.445 -3.910659218994889e-17
C 0.257 2.34 -5.625944834231285e-17
C 1.759 3.781 -5.789691794210576e-17
C 2.3809999999999993 3.94 -0.9070000000000004
C 0.9140000000000001 4.502 4.2170612896368907e-16
C 2.3810000000000002 3.94 0.9069999999999998
C 0.1511996645472931 1.0602393039199292 0.8666472704050266
C 1.3577969496673705 2.364578232658877 -0.3009168882080881
C -1.0256143940090354 -1.5171801701668026 -0.21400010942639083
C -0.9557346534748558 -1.3734288530547056 -0.15576906500147591
26
Mode 9 - Frame 16
C -2.218688663617095 0.2594591185317742 1.4330383545650551
C -2.8128664397614034 0.17697264234222743 0.5223507236755683
C -2.6817969836692974 1.0426321265171588 2.0400494471357735
C -2.181824559887858 -0.694339366563119 1.9569792349364363
C -0.7930765850232779 0.6452243852349951 1.1006213070489905
C -0.3084396740192791 1.6850670715108909 1.5322321709785702
C -0.12605223931910303 -0.17336543499882112 0.28053046782310853
C 4.066015959527748 2.4990256495309886 -1.4359380661884626
C 1.2329970238545527 0.06142305233563657 -0.20476392481426361
C 1.8922369672488801 0.012587787075311073 0.6644786155849695
C 1.4084953122249144 1.4527810117785036 -0.8318146758573864
C 2.4755333960198374 1.8459157572660994 -1.3140872147102736
C 1.6051037122200507 -1.0655340180501247 -1.1805351608317252
C 1.5037218303907744 -2.0297860221758013 -0.67478801661997
C 0.9537215616918111 -1.0398065683150248 -2.0505329995519066
C 2.644092594666223 -0.9513153565489229 -1.4940913734551091
C 1.2568309698270468 2.436422214085308 0.014351181504919631
C 0.2643148920037519 2.3306409850361107 0.020645868364226723
C 1.7438145355380545 3.78072501121226 0.021246780438622607
C 2.5137330005757557 3.9117438493867382 -0.7813860591248473
C 0.8868404101130813 4.4938441374336655 -0.15475603624829315
C 2.282849387840304 3.9688164450559493 0.9776033451837238
C 0.17060974538251136 1.0460130158397642 0.8796412752408558
C 1.3680411511482327 2.358138515933257 -0.28634108058333496
C -1.0057150078238462 -1.5440952726527726 -0.15670099281413247
C -0.9361562923192908 -1.3987786887395064 -0.10194437147438876
26
Mode 9 - Frame 17
C -2.2127634545900134 0.26702259395657635 1.4355733334826397
C -2.7965168721837763 0.13969220258048576 0.5177354464007144
C -2.7230904914789265 1.1006616471359372 1.9602575763986727
C -2.1662238478824287 -0.6614815454547096 2.0099908550237755
C -0.7695387013803918 0.6299565881653865 1.1338514174111853
C -0.26762075458163753 1.658359271278091 1.5738857630900656
C -0.10357508945869538 -0.1946742956961472 0.31817076016351886
C 4.127362754467731 2.456952654722533 -1.3126806076095816
C 1.232713437862569 0.058366306395261386 -0.22756265378683369
C 1.911206996375603 -0.001253814997446083 0.6287043853470541
C 1.394526165386688 1.457055627620031 -0.8393963123507056
C 2.4181778550870576 1.8716903723019542 -1.4028356243400364
C 1.575554426825483 -1.0538443737437353 -1.235238420797951
C 1.497477058688201 -2.025210343187127 -0.7319097593982957
C 0.8996970707980395 -1.0187394010242774 -2.0830024240710303
C 2.6086697875409293 -0.9369399112443901 -1.5707052892736932
C 1.2652759838969567 2.428219318575872 0.028075147513465046
C 0.2713100881261936 2.3216910039356797 0.04038941321106875
C 1.729292748741039 3.7804620407540863 0.04156497461871337
C 2.6406649321027493 3.8847226281433294 -0.661262050228502
C 0.8608678246303927 4.48604472519765 -0.30274849111068397
C 2.1889884284108785 3.996373473186309 1.0451209853904806
C 0.189171512545329 1.0324084848140065 0.892067379713206
C 1.3778376318672485 2.3519802457297354 -0.27240230569426854
C -0.9866853203027988 -1.5698340560071147 -0.10190612254949673
C -0.917433599493624 -1.423020614962874 -0.05047207533397052
26
Mode 9 - Frame 18
C -2.207368000742355 0.2739098417137277 1.4378816675333208
C -2.781629070438542 0.10574489519680547 0.5135328072335884
C -2.7606920705247413 1.1535029222486548 1.8875996576632021
C -2.1520179487772344 -0.6315614436465264 2.0582628650513666
C -0.7481052693636814 0.6160538390694502 1.1641105232068396
C -0.23045133238395896 1.6340393354125482 1.6118152323796016
C -0.08310755419632013 -0.21407799502778724 0.35244574678539875
C 4.183224716347493 2.418641280274092 -1.2004432289614217
C 1.2324552064441336 0.05558285494739988 -0.24832301673682525
C 1.928480972057164 -0.013857880916450706 0.5961286218082517
C 1.3818059580974038 1.4609480628715164 -0.8463000974496719
C 2.36595030115674 1.8951605562619653 -1.4836493046713
C 1.5486470544696744 -1.043199865497292 -1.285050826253226
C 1.4917906133060377 -2.0210437619421016 -0.7839244183663837
C 0.8505027477069318 -0.999555786016164 -2.1125688546648314
C 2.576414027427573 -0.9238497314168692 -1.6404693845145961
C 1.2729659545712015 2.4207498193673134 0.04057209485616735
C 0.27767986473009937 2.3135412138195703 0.05836774689067959
C 1.7160693113752477 3.7802225816963744 0.060066579957089375
C 2.7562482600862657 3.8601172933003167 -0.5518779689186827
C 0.8372173701678203 4.478942635032401 -0.4375093841630974
C 2.1035192960336424 4.0214667100284895 1.1066020757576511
C 0.20607372774148996 1.0200202941302645 0.9033825034295712
C 1.3867582386082673 2.346372568006866 -0.2597097548892038
C -0.969357020105135 -1.5932716118888584 -0.05201029739800794
C -0.9003848465157852 -1.445095143223179 -0.0036017629130377093
26
Mode 9 - Frame 19
C -2.2027381092975222 0.2798198560275592 1.439862471442468
C -2.768853702901566 0.07661438042110733 0.5099264816722937
C -2.7929583513700456 1.1988465345723158 1.8252511906294777
C -2.139827728530639 -0.6058867131601645 2.0996855465461994
C -0.7297130328012947 0.6041237547954706 1.1900761563133835
C -0.19855588953495815 1.6131701618115868 1.6443628790334384
C -0.06554416303707387 -0.2307284982236688 0.38185744630373875
C 4.231160409377456 2.385765917087434 -1.104131242265604
C 1.2322336155513638 0.05319434817680554 -0.26613768618404965
C 1.9433039386665476 -0.024673552520023793 0.5681750421510643
C 1.3708906244539296 1.4642881994344932 -0.8522243026174247
C 2.3211333289512486 1.9153005494846425 -1.5529963100865263
C 1.525557576440471 -1.034065709399182 -1.3277953360527144
C 1.4869110191940773 -2.0174683780346077 -0.8285587033333031
C 0.8082886203981218 -0.983094139319737 -2.137940096440885
C 2.5487350458234173 -0.9126169207384749 -1.7003346334505194
C 1.279564793230743 2.4143401694176805 0.05129584696714389
C 0.28314583201229904 2.306547799622888 0.0737951299516438
C 1.7047221511066577 3.7800170995489975 0.07594298751991117
C 2.855431438463082 3.8390032160598357 -0.458014424431685
C 0.8169226850728504 4.472848262357748 -0.5531490177246332
C 2.030177401919882 4.042999460721779 1.1593595976171869
C 0.220577683061095 1.009389867166552 0.9130921211875581
C 1.3944130980508855 2.3415605651897606 -0.24881815354393816
C -0.9544874370999025 -1.6133836066401006 -0.00919420434551918
C -0.8857551456998991 -1.4640375107101067 0.036618108226902785
26
Mode 9 - Frame 20
C -2.1990761287283385 0.2844943409131615 1.4414291745742995
C -2.7587491144372285 0.05357380153280797 0.507074083448929
C -2.8184791427111056 1.2347107506655837 1.7759371024880115
C -2.1301859582625853 -0.5855794629189038 2.1324485295588715
C -0.7151658206867509 0.5946877372731164 1.2106134939671302
C -0.17332840993845194 1.5966638335029741 1.670106214711867
C -0.05165252045311702 -0.24389809839615312 0.4051204263165946
C 4.269074813751236 2.3597633762873107 -1.0279539434969234
C 1.2320583497695847 0.05130517529068042 -0.28022807558939494
C 1.9550280614344377 -0.03322813305973871 0.5460653519426684
C 1.3622572169140676 1.466930057313406 -0.8569100116606424
C 2.285685655211655 1.9312301376237448 -1.607845843685218
C 1.5072951137233574 -1.0268411119014367 -1.3616038100072632
C 1.4830515380299034 -2.014640452897998 -0.8638618818669371
C 0.7748996488008618 -0.970073913887375 -2.1580073043888524
C 2.5268425470430538 -0.9037324069368585 -1.7476846374376276
C 1.2847840989614185 2.409270501186685 0.05977772442087318
C 0.2874691009739395 2.3010164071041523 0.08599731172540001
C 1.6957471932887227 3.779854574867809 0.08850032211322756
C 2.9338796864044383 3.8223031829138785 -0.38377370406884903
C 0.8008707444688367 4.468027960503619 -0.6446133849081254
C 1.9721681387758219 4.060030640735278 1.201087794105149
C 0.232049486058978 1.0009818045916312 0.9207718760992276
C 1.4004676561053704 2.337754544892079 -0.24020351690096156
C -0.9427264434166055 -1.6292910495821542 0.024670887887166648
C -0.8741838851727133 -1.4790198450689154 0.06842973672068126
26
Mode 9 - Frame 21
C -2.196542105157809 0.2877289989503665 1.442513304484079
C -2.7517569240486175 0.03763014239029014 0.5051002760531805
C -2.836139063503973 1.2595281321895804 1.7418126555258349
C -2.123514029600134 -0.5715272172032853 2.1551199145174946
C -0.705099415994724 0.5881581857471502 1.2248249559635305
C -0.15587145550768564 1.5852417562399477 1.68792013211551
C -0.042039757884865345 -0.2530112208229496 0.4212179829692415
C 4.2953108880642 2.3417700936807218 -0.9752406461508063
C 1.2319370690544784 0.04999790220940547 -0.2899783673226575
C 1.9631409399372952 -0.039147746316578094 0.5307658507392354
C 1.3562830568149955 1.4687581746419054 -0.8601524366096099
C 2.2611565133771907 1.942253121238949 -1.645800717651849
C 1.4946578235720902 -1.0218418225821724 -1.3849986555740017
C 1.4803808476602354 -2.0126835804306333 -0.8882910356619207
C 0.7517950911920137 -0.9610641560484459 -2.1718934452282608
C 2.5116933383350486 -0.8975844858977782 -1.7804499740911561
C 1.2883957630577898 2.4057623835029887 0.06564702847206355
C 0.29046072401605094 2.2971887846589985 0.09444099831587058
C 1.6895366866447123 3.779742110761257 0.09718976795853383
C 2.9881644390388384 3.8107470654465736 -0.33240048355653196
C 0.7897630951859316 4.464692399791414 -0.7079050539729267
C 1.9320267897601862 4.071815905777728 1.229962942800911
C 0.2399877638963132 0.9951635790863869 0.9260861260233872
C 1.404657299531748 2.3351208484641406 -0.23424234591918502
C -0.9345880509147132 -1.6402987091260706 0.04810491226673916
C -0.8661767845443341 -1.4893873463949077 0.09044280175398992
26
Mode 9 - Frame 22
C -2.1952467875755604 0.2893824600613371 1.4430674794925165
C -2.7481827240079664 0.029480217404246667 0.5040913243396213
C -2.8451662904682973 1.2722140404846978 1.7243692518224591
C -2.1201035378413002 -0.5643441265812379 2.1667088531100007
C -0.6999537689142246 0.5848204729515211 1.2320894332191814
C -0.14694797891904499 1.5794031296081092 1.6970260775731685
C -0.037125999183704 -0.257669578324394 0.4294465757913118
C 4.308721989974219 2.3325724620589243 -0.9482951742677432
C 1.2318750739552649 0.04932966303962463 -0.2949624268480031
C 1.9672880024546346 -0.04217367678576214 0.5229452001585074
C 1.3532292436202433 1.469692653920456 -0.8618098679351763
C 2.2486179446499035 1.9478877430521269 -1.6652021218663853
C 1.4881980162067259 -1.019286334373893 -1.3969574057407392
C 1.479015670069622 -2.011683285349453 -0.900778493473327
C 0.7399847276070521 -0.9564586354541256 -2.178991627971331
C 2.5039495128139104 -0.8944418512716399 -1.797198640973817
C 1.2902419384681583 2.4039691379431853 0.06864724236963239
C 0.291989952856293 2.2952322177552498 0.09875716010174834
C 1.686362060116287 3.7796846224504606 0.10163155457580275
C 3.015913192189015 3.804839921443646 -0.3061400191471847
C 0.784085194798213 4.462987360230051 -0.7402578752737815
C 1.911507724444521 4.077840183214799 1.2447230611481317
C 0.2440455757395258 0.9921894750243417 0.9288026127377506
C 1.4067989208081453 2.3337745810777246 -0.23119517237538426
C -0.9304279463988984 -1.6459254977291704 0.06008368947888601
C -0.8620837925345535 -1.4946869051313472 0.10169522675446754
26
Mode 9 - Frame 23
C -2.1952467875755604 0.2893824600613371 1.4430674794925165
C -2.7481827240079664 0.029480217404246667 0.5040913243396213
C -2.8451662904682973 1.2722140404846978 1.724369251822459
C -2.1201035378413002 -0.5643441265812379 2.1667088531100007
C -0.6999537689142246 0.5848204729515211 1.2320894332191814
C -0.14694797891904496 1.5794031296081092 1.6970260775731685
C -0.03712599918370399 -0.257669578324394 0.4294465757913118
C 4.308721989974219 2.3325724620589243 -0.9482951742677431
C 1.2318750739552649 0.04932966303962463 -0.2949624268480031
C 1.9672880024546346 -0.04217367678576216 0.5229452001585074
C 1.3532292436202433 1.469692653920456 -0.8618098679351763
C 2.2486179446499035 1.9478877430521269 -1.6652021218663855
C 1.4881980162067259 -1.019286334373893 -1.3969574057407392
C 1.479015670069622 -2.011683285349453 -0.900778493473327
C 0.7399847276070521 -0.9564586354541255 -2.178991627971331
C 2.5039495128139104 -0.8944418512716399 -1.797198640973817
C 1.2902419384681583 2.4039691379431853 0.0686472423696324
C 0.291989952856293 2.2952322177552498 0.09875716010174836
C 1.686362060116287 3.7796846224504606 0.10163155457580277
C 3.015913192189015 3.804839921443646 -0.3061400191471846
C 0.784085194798213 4.462987360230051 -0.7402578752737816
C 1.911507724444521 4.077840183214799 1.2447230611481317
C 0.24404557573952582 0.9921894750243417 0.9288026127377506
C 1.4067989208081453 2.3337745810777246 -0.23119517237538426
C -0.9304279463988984 -1.6459254977291704 0.06008368947888601
C -0.8620837925345535 -1.4946869051313472 0.1016952267544676
26
Mode 9 - Frame 24
C -2.196542105157809 0.2877289989503665 1.442513304484079
C -2.7517569240486175 0.03763014239029011 0.5051002760531805
C -2.836139063503973 1.2595281321895804 1.7418126555258349
C -2.123514029600134 -0.5715272172032853 2.1551199145174946
C -0.705099415994724 0.5881581857471502 1.2248249559635305
C -0.1558714555076856 1.5852417562399477 1.68792013211551
C -0.04203975788486533 -0.2530112208229496 0.4212179829692415
C 4.2953108880642 2.3417700936807213 -0.9752406461508063
C 1.2319370690544784 0.04999790220940546 -0.2899783673226575
C 1.9631409399372952 -0.03914774631657811 0.5307658507392354
C 1.3562830568149955 1.4687581746419054 -0.86015243660961
C 2.2611565133771907 1.942253121238949 -1.645800717651849
C 1.4946578235720902 -1.0218418225821724 -1.3849986555740017
C 1.4803808476602354 -2.0126835804306333 -0.8882910356619207
C 0.7517950911920137 -0.9610641560484459 -2.1718934452282608
C 2.5116933383350486 -0.8975844858977782 -1.7804499740911564
C 1.2883957630577898 2.4057623835029887 0.06564702847206356
C 0.29046072401605094 2.2971887846589985 0.09444099831587059
C 1.6895366866447123 3.779742110761257 0.09718976795853383
C 2.9881644390388384 3.8107470654465736 -0.33240048355653184
C 0.7897630951859316 4.464692399791414 -0.7079050539729268
C 1.9320267897601862 4.071815905777728 1.229962942800911
C 0.2399877638963132 0.9951635790863869 0.9260861260233872
C 1.404657299531748 2.3351208484641406 -0.23424234591918502
C -0.9345880509147132 -1.6402987091260706 0.04810491226673916
C -0.8661767845443341 -1.4893873463949077 0.09044280175398994
26
Mode 9 - Frame 25
C -2.1990761287283385 0.2844943409131615 1.4414291745742995
C -2.7587491144372285 0.05357380153280797 0.507074083448929
C -2.8184791427111056 1.2347107506655837 1.7759371024880115
C -2.1301859582625853 -0.5855794629189037 2.1324485295588715
C -0.7151658206867509 0.5946877372731164 1.2106134939671302
C -0.17332840993845192 1.5966638335029741 1.670106214711867
C -0.05165252045311701 -0.24389809839615312 0.4051204263165946
C 4.269074813751236 2.3597633762873107 -1.0279539434969234
C 1.2320583497695847 0.05130517529068041 -0.28022807558939494
C 1.9550280614344377 -0.03322813305973871 0.5460653519426684
C 1.3622572169140676 1.466930057313406 -0.8569100116606424
C 2.285685655211655 1.931230137623745 -1.607845843685218
C 1.5072951137233574 -1.0268411119014367 -1.3616038100072632
C 1.4830515380299034 -2.014640452897998 -0.8638618818669372
C 0.7748996488008618 -0.970073913887375 -2.1580073043888524
C 2.5268425470430538 -0.9037324069368585 -1.7476846374376276
C 1.2847840989614185 2.409270501186685 0.05977772442087319
C 0.2874691009739395 2.3010164071041523 0.08599731172540002
C 1.6957471932887227 3.779854574867809 0.08850032211322757
C 2.9338796864044383 3.8223031829138785 -0.3837737040688489
C 0.8008707444688367 4.468027960503619 -0.6446133849081255
C 1.9721681387758219 4.060030640735278 1.201087794105149
C 0.23204948605897802 1.0009818045916312 0.9207718760992276
C 1.4004676561053704 2.337754544892079 -0.24020351690096153
C -0.9427264434166054 -1.6292910495821542 0.024670887887166676
C -0.8741838851727133 -1.4790198450689154 0.06842973672068128
26
Mode 9 - Frame 26
C -2.2027381092975222 0.2798198560275592 1.439862471442468
C -2.768853702901566 0.07661438042110733 0.5099264816722937
C -2.7929583513700456 1.1988465345723158 1.8252511906294777
C -2.139827728530639 -0.6058867131601645 2.0996855465461994
C -0.7297130328012947 0.6041237547954706 1.1900761563133835
C -0.19855588953495815 1.6131701618115868 1.6443628790334384
C -0.06554416303707387 -0.2307284982236688 0.38185744630373875
C 4.231160409377456 2.385765917087434 -1.104131242265604
C 1.2322336155513638 0.05319434817680554 -0.26613768618404965
C 1.9433039386665476 -0.024673552520023793 0.5681750421510643
C 1.3708906244539296 1.4642881994344932 -0.8522243026174247
C 2.3211333289512486 1.9153005494846425 -1.5529963100865263
C 1.525557576440471 -1.034065709399182 -1.3277953360527144
C 1.4869110191940773 -2.0174683780346077 -0.8285587033333031
C 0.8082886203981218 -0.983094139319737 -2.137940096440885
C 2.5487350458234173 -0.9126169207384749 -1.7003346334505194
C 1.279564793230743 2.4143401694176805 0.05129584696714389
C 0.28314583201229904 2.306547799622888 0.0737951299516438
C 1.7047221511066577 3.7800170995489975 0.07594298751991117
C 2.855431438463082 3.8390032160598357 -0.458014424431685
C 0.8169226850728504 4.472848262357748 -0.5531490177246332
C 2.030177401919882 4.042999460721779 1.1593595976171869
C 0.220577683061095 1.009389867166552 0.9130921211875581
C 1.3944130980508855 2.3415605651897606 -0.24881815354393816
C -0.9544874370999025 -1.6133836066401006 -0.00919420434551918
C -0.8857551456998991 -1.4640375107101067 0.036618108226902785
26
Mode 9 - Frame 27
C -2.207368000742355 0.2739098417137277 1.4378816675333208
C -2.781629070438542 0.10574489519680541 0.5135328072335883
C -2.7606920705247413 1.153502922248655 1.887599657663202
C -2.1520179487772344 -0.6315614436465263 2.0582628650513666
C -0.7481052693636814 0.6160538390694502 1.1641105232068396
C -0.23045133238395887 1.6340393354125482 1.6118152323796016
C -0.08310755419632009 -0.21407799502778724 0.3524457467853988
C 4.183224716347493 2.418641280274092 -1.2004432289614215
C 1.2324552064441336 0.05558285494739988 -0.24832301673682527
C 1.9284809720571643 -0.013857880916450734 0.5961286218082517
C 1.3818059580974038 1.4609480628715164 -0.846300097449672
C 2.36595030115674 1.8951605562619653 -1.4836493046713002
C 1.5486470544696742 -1.043199865497292 -1.2850508262532263
C 1.4917906133060375 -2.0210437619421016 -0.7839244183663838
C 0.8505027477069316 -0.9995557860161639 -2.1125688546648314
C 2.576414027427573 -0.9238497314168692 -1.6404693845145961
C 1.2729659545712015 2.4207498193673134 0.04057209485616737
C 0.27767986473009937 2.31354121381957 0.05836774689067962
C 1.7160693113752477 3.7802225816963744 0.06006657995708941
C 2.7562482600862657 3.8601172933003167 -0.5518779689186825
C 0.8372173701678203 4.478942635032401 -0.4375093841630977
C 2.1035192960336424 4.0214667100284895 1.1066020757576511
C 0.20607372774149 1.0200202941302645 0.9033825034295712
C 1.3867582386082673 2.346372568006866 -0.2597097548892038
C -0.969357020105135 -1.5932716118888584 -0.05201029739800786
C -0.9003848465157852 -1.445095143223179 -0.003601762913037626
26
Mode 9 - Frame 28
C -2.2127634545900134 0.26702259395657635 1.4355733334826397
C -2.7965168721837763 0.13969220258048576 0.5177354464007144
C -2.7230904914789265 1.1006616471359372 1.9602575763986727
C -2.1662238478824287 -0.6614815454547096 2.0099908550237755
C -0.7695387013803918 0.6299565881653865 1.1338514174111853
C -0.26762075458163753 1.658359271278091 1.5738857630900656
C -0.1035750894586954 -0.1946742956961472 0.31817076016351886
C 4.127362754467731 2.456952654722533 -1.3126806076095816
C 1.232713437862569 0.058366306395261386 -0.22756265378683369
C 1.911206996375603 -0.0012538149974460795 0.6287043853470541
C 1.394526165386688 1.457055627620031 -0.8393963123507056
C 2.418177855087058 1.8716903723019542 -1.4028356243400364
C 1.575554426825483 -1.0538443737437353 -1.235238420797951
C 1.497477058688201 -2.025210343187127 -0.7319097593982957
C 0.8996970707980395 -1.0187394010242774 -2.0830024240710303
C 2.6086697875409293 -0.9369399112443901 -1.5707052892736932
C 1.2652759838969567 2.428219318575872 0.028075147513465043
C 0.2713100881261936 2.3216910039356797 0.04038941321106875
C 1.729292748741039 3.7804620407540863 0.04156497461871336
C 2.6406649321027493 3.8847226281433294 -0.661262050228502
C 0.8608678246303927 4.48604472519765 -0.30274849111068397
C 2.1889884284108785 3.996373473186309 1.0451209853904806
C 0.189171512545329 1.0324084848140065 0.892067379713206
C 1.3778376318672485 2.3519802457297354 -0.27240230569426854
C -0.9866853203027988 -1.5698340560071147 -0.10190612254949674
C -0.917433599493624 -1.423020614962874 -0.05047207533397054
26
Mode 9 - Frame 29
C -2.218688663617095 0.25945911853177417 1.4330383545650551
C -2.8128664397614034 0.17697264234222743 0.5223507236755683
C -2.6817969836692974 1.0426321265171588 2.0400494471357735
C -2.181824559887858 -0.694339366563119 1.9569792349364363
C -0.7930765850232779 0.6452243852349951 1.1006213070489905
C -0.3084396740192791 1.6850670715108909 1.5322321709785702
C -0.12605223931910303 -0.1733654349988211 0.28053046782310853
C 4.066015959527748 2.4990256495309886 -1.4359380661884626
C 1.2329970238545527 0.06142305233563657 -0.2047639248142636
C 1.8922369672488801 0.01258778707531108 0.6644786155849695
C 1.4084953122249144 1.4527810117785036 -0.8318146758573864
C 2.4755333960198374 1.8459157572660991 -1.3140872147102736
C 1.6051037122200507 -1.0655340180501247 -1.1805351608317252
C 1.5037218303907744 -2.0297860221758013 -0.67478801661997
C 0.9537215616918111 -1.0398065683150248 -2.0505329995519066
C 2.644092594666223 -0.9513153565489229 -1.4940913734551091
C 1.2568309698270468 2.436422214085308 0.014351181504919626
C 0.2643148920037519 2.3306409850361107 0.020645868364226716
C 1.7438145355380545 3.78072501121226 0.0212467804386226
C 2.5137330005757557 3.9117438493867382 -0.7813860591248473
C 0.8868404101130813 4.4938441374336655 -0.1547560362482931
C 2.282849387840304 3.9688164450559493 0.9776033451837238
C 0.17060974538251134 1.0460130158397642 0.8796412752408558
C 1.3680411511482327 2.358138515933257 -0.28634108058333496
C -1.0057150078238462 -1.5440952726527726 -0.1567009928141325
C -0.9361562923192908 -1.3987786887395064 -0.10194437147438878
26
Mode 9 - Frame 30
C -2.224884667756808 0.25154997560896697 1.430387521523444
C -2.8299632186143517 0.2159568803730443 0.5271769292946814
C -2.638616271535371 0.9819505288998946 2.1234879822394155
C -2.198138258818363 -0.7286988625199979 1.9015448669651416
C -0.8176902018298485 0.6611899542833155 1.0658725073988438
C -0.35112410804655125 1.7129954770825297 1.488674917896499
C -0.14955664447131137 -0.15108271239954052 0.24116993115760607
C 4.001865480841006 2.5430214729377005 -1.5648286623032595
C 1.233293570351438 0.06461949830303662 -0.18092324367565596
C 1.8723999659781325 0.027061980871865267 0.7018878069967981
C 1.4231028798638485 1.4483110365710914 -0.8238865418652012
C 2.5355102115938943 1.818963185511793 -1.2212828071449515
C 1.6360034650884312 -1.0777579048671344 -1.123331841310438
C 1.5102520019246166 -2.0345708197797756 -0.6150556842913528
C 1.0102150908979188 -1.0618365515863157 -2.016579650764531
C 2.6811343021545917 -0.9663477913896193 -1.4139760328144728
C 1.248 2.445 7.821318437989778e-17
C 0.25700000000000006 2.34 1.125188966846257e-16
C 1.759 3.781 1.1579383588421151e-16
C 2.3810000000000007 3.94 -0.9069999999999994
C 0.9139999999999999 4.502 -8.434122579273781e-16
C 2.3809999999999993 3.94 0.9070000000000004
C 0.15119966454729328 1.0602393039199292 0.8666472704050268
C 1.3577969496673705 2.364578232658877 -0.300916888208088
C -1.0256143940090354 -1.5171801701668028 -0.21400010942639036
C -0.9557346534748556 -1.3734288530547059 -0.15576906500147547
