26
Mode 7 - Frame 1
C -2.214491540139854 0.24420648760464342 1.4616824337630563
C -2.848571747967522 0.2583442738205437 0.5767293260054349
C -2.5804218942775865 0.9394546948900782 2.2214900878391646
C -2.186652685402484 -0.7595559686478806 1.883955035169887
C -0.8270943252050895 0.6649555187746069 1.0460947412978872
C -0.3556556515858193 1.714659004533518 1.4708970524076443
C -0.18718641548298798 -0.12952445070126198 0.1800918944723497
C 4.094012986106482 2.5106319098004217 -1.4068751652022993
C 1.211239187071585 0.05924060464704071 -0.20725930915496993
C 1.8412373937573263 -0.004197861453091315 0.6827555721440965
C 1.451329670970319 1.449197578671737 -0.8184266519233011
C 2.6291054340119135 1.7897332177504555 -1.0968452542755645
C 1.596305687397457 -1.0673744004862062 -1.1775658709420302
C 1.4481654723696566 -2.033573054200651 -0.6912468348023253
C 0.9796562091707725 -1.0174449298543748 -2.0741255501726936
C 2.6491187090233717 -0.9735783433236498 -1.4501626399422536
C 1.2498609364167894 2.4445588105586733 0.0020887980182466865
C 0.2584745716509647 2.3386939550016566 -0.01962599986090702
C 1.735122967228169 3.7922628618780054 -0.026155050430266665
C 2.429499982244097 3.920393253202967 -0.8880972271725949
C 0.8778437761303468 4.501036506298711 -0.1298353299450319
C 2.296789501304645 3.990004209006477 0.915330570010092
C 0.14167542660679028 1.0588834718780513 0.8468469299984529
C 1.3697705054491536 2.3608452771550743 -0.29417631845966047
C -1.084660683958738 -1.4714771515930343 -0.29945783063427195
C -1.0115963029832662 -1.3311524832499777 -0.2366051240804533
26
Mode 7 - Frame 2
C -2.20455264207152 0.23718394526407388 1.4916096081681476
C -2.8663669952943276 0.2988791347771068 0.6241160452011479
C -2.5247708905535715 0.898816132744127 2.315209031157926
C -2.1756690866587753 -0.7890644711691513 1.8671339634294628
C -0.8360874432628419 0.6685565100284456 1.027181358479794
C -0.3599891449276627 1.7162498278524072 1.4538961649483162
C -0.2231715849337792 -0.10890838848721535 0.1216832610751765
C 4.182133203219068 2.4796579259946094 -1.2558249938696222
C 1.1901486861697341 0.05409679445460723 -0.2324443621983748
C 1.8114367754771814 -0.0340914986670815 0.6644595077611064
C 1.478322815858265 1.4500453746284834 -0.8132053853713207
C 2.718610096090558 1.7617807398412355 -0.9778462195841979
C 1.5583428930826502 -1.0574447050723068 -1.229429613234974
C 1.3887924220804713 -2.0326188957651445 -0.7641080664302651
C 0.9504328972128858 -0.9749934350067544 -2.1291564176408575
C 2.618502350939847 -0.9804928854421253 -1.4847677186959445
C 1.2516405409824016 2.4441369032129945 0.004086305539931049
C 0.2598846974450025 2.3374449904368397 -0.03839424935189641
C 1.712289475363182 3.8030334826467342 -0.051166999650874054
C 2.475880282535392 3.901643415324574 -0.870020596223315
C 0.8432677527406086 4.500115121895525 -0.25399623295243
C 2.2162594054890827 4.037822994132554 0.9232970541362329
C 0.13256744356665157 1.0575868962024075 0.8279119594802211
C 1.3812207593877774 2.3572754697194958 -0.2877303439540814
C -1.141126367702104 -1.4277715742383545 -0.3811806393537257
C -1.0650165303542247 -1.2907237936702463 -0.31390825948323187
26
Mode 7 - Frame 3
C -2.1955023510895173 0.2307892673854381 1.5188610836106997
C -2.882571222895517 0.3357898953110889 0.667266059866261
C -2.474095476269209 0.8618109426332753 2.4005488446592858
C -2.165667498557491 -0.8159347069261259 1.851816813295383
C -0.8442765135902135 0.6718355474475658 1.0099589645301943
C -0.3639351936186349 1.7176984204265453 1.4384152758797961
C -0.2559394282426845 -0.09013554660299655 0.06849676852126188
C 4.262374855843228 2.4514532332422423 -1.1182797656116064
C 1.1709438237387477 0.04941287691388535 -0.25537769513658093
C 1.7843005411557722 -0.061312435378267485 0.6477992396556222
C 1.502902584568604 1.4508173716898445 -0.8084509366119984
C 2.800112414605973 1.7363274091996366 -0.8694865319075862
C 1.523774238421266 -1.0484027939629885 -1.2766563737812209
C 1.334727738258203 -2.031750045775448 -0.8304549937260511
C 0.9238223539858279 -0.9363374010731683 -2.1792671401932635
C 2.590623309665853 -0.9867892190748144 -1.5162788610804177
C 1.253261036437829 2.443752717338506 0.0059052219012509415
C 0.2611687481183795 2.3363076920502297 -0.055484485910158886
C 1.6914974575667896 3.8128411344954207 -0.07394270546023321
C 2.518113859193781 3.884569944251811 -0.8535601426659429
C 0.8117830679670853 4.499276115710153 -0.36705628177065647
C 2.142929264166726 4.081366445008234 0.9305512787946782
C 0.12427377799068277 1.0564062434716839 0.8106699079220475
C 1.3916472804417102 2.3540248280669127 -0.28186068470846215
C -1.1925436239071359 -1.3879735815557912 -0.45559685669416733
C -1.1136606153129291 -1.2539097120485219 -0.38429995325111105
26
Mode 7 - Frame 4
C -2.1877362083378733 0.22530193207710134 1.5422458398467853
C -2.896476228268407 0.367463378069675 0.7042935073031656
C -2.430610410196343 0.8300564289359708 2.4737797689873755
C -2.1570850384916014 -0.8389923176785278 1.838673017728348
C -0.8513036345183791 0.6746493213621847 0.9951802607069011
C -0.36732133639569803 1.718941471809324 1.425130974339926
C -0.28405783341954727 -0.07402638832103584 0.022856921752319098
C 4.331230998717118 2.427250511957731 -1.0002508669183596
C 1.1544639444220144 0.04539356169733464 -0.27505701127384785
C 1.7610146744470436 -0.08467098603182391 0.6335029014886896
C 1.5239947232618773 1.4514798298797857 -0.8043710978704927
C 2.8700503471475183 1.7144856585133281 -0.7765020295646685
C 1.494110539500816 -1.0406438420616317 -1.3171821165257593
C 1.2883343070170212 -2.0310044771453164 -0.8873879375989779
C 0.9009875879201745 -0.9031662822287453 -2.222267638796447
C 2.5667000330835457 -0.9921921642288076 -1.543318878966234
C 1.2546515993556693 2.4434230437014506 0.00746605172908761
C 0.26227060449511047 2.3353317652386836 -0.07014978419004468
C 1.6736556247878644 3.821257175975942 -0.09348676022451308
C 2.554354902260108 3.8699190325981614 -0.8394352673069555
C 0.7847657536146594 4.498556156338894 -0.4640742097440486
C 2.0800039563904202 4.118731503885588 0.9367761995582221
C 0.11715690286197658 1.0553931138756132 0.7958743357135669
C 1.4005943796088953 2.3512354208358524 -0.27682387299758626
C -1.2366652717503044 -1.3538225367975294 -0.5194541368691903
C -1.155402577926467 -1.2223191904052368 -0.444703750589612
26
Mode 7 - Frame 5
C -2.181593631520922 0.22096176222319414 1.5607418508163777
C -2.9074742959545836 0.3925152998700821 0.7335801103814634
C -2.3962161983868544 0.804940416275848 2.531701261348095
C -2.1502968011491985 -0.8572295751937851 1.8282770236655654
C -0.8568616871429104 0.6768748563502481 0.9834911472830813
C -0.36999958257097865 1.7199246546904936 1.4146238480511493
C -0.30629789123106066 -0.061284961158572585 -0.013241598923566217
C 4.385692287988716 2.40810753719875 -0.9068967270282701
C 1.1414292980249103 0.04221451216673261 -0.29062223006314103
C 1.7425968794641526 -0.10314626987742859 0.6221953118396454
C 1.5406774042658786 1.4520037965965797 -0.8011441776770459
C 2.9253672704636946 1.6972100770956497 -0.702956581496976
C 1.470648242306344 -1.0345069527979078 -1.3492356720465641
C 1.251639743922548 -2.030414774801521 -0.9324186552072236
C 0.8829265878663594 -0.8769298155396748 -2.256278585322163
C 2.5477780831761896 -0.9964655862746682 -1.5647059938193817
C 1.255751455463752 2.4431622906217183 0.008700579270272114
C 0.2631421101642387 2.3345598626868824 -0.08174920028481404
C 1.6595437507334585 3.827913785690952 -0.1089449949677349
C 2.5830195042485546 3.858330995505764 -0.8282632949782123
C 0.7633965959639899 4.497986709461021 -0.5408098678764998
C 2.030233620059117 4.148285138394232 0.9416997575190137
C 0.11152785977421328 1.054591786039079 0.7841718803573224
C 1.4076710257227822 2.349029158507373 -0.2728400416625231
C -1.271562983501707 -1.3268110044943997 -0.569961610313919
C -1.1884180941284668 -1.197332886124344 -0.49247971570546445
26
Mode 7 - Frame 6
C -2.1773430807209193 0.21795844407277784 1.5735407520863978
C -2.915084757621577 0.4098507715171742 0.7538459040139192
C -2.3724160329385584 0.7875605949261546 2.571781874587124
C -2.1455994650757226 -0.8698494238064103 1.8210831859330936
C -0.86070775789362 0.678414885853476 0.9754024946059449
C -0.37185287993496585 1.7206049992603119 1.4073531088510716
C -0.3216876044312238 -0.052468126622757405 -0.03822111493293709
C 4.423378503982594 2.394860948820452 -0.8422973698173987
C 1.1324095611421614 0.04001466804133871 -0.30139307675316196
C 1.7298521022262374 -0.11593082835678059 0.6143706666359878
C 1.5522215143683478 1.4523663719804314 -0.7989112079285926
C 2.963645569565537 1.6852556907519909 -0.6520644766952818
C 1.4544127618098417 -1.0302603376807036 -1.3714161461573517
C 1.2262477774620613 -2.0300067115661915 -0.9635790881099507
C 0.8704287061930279 -0.8587746604968043 -2.2798135382046096
C 2.5346844399523256 -0.999422716162838 -1.5795054860940152
C 1.256512535772459 2.4429818542601245 0.009554849747334298
C 0.2637451761460752 2.33402572024034 -0.08977578405095171
C 1.6497785920160335 3.8325200378539472 -0.11964181065477976
C 2.602854884504205 3.8503122858011283 -0.8205324944795503
C 0.7486095297450062 4.497592662637605 -0.5939095396890806
C 1.9957934576950653 4.168735712892065 0.945106769568314
C 0.10763266492147368 1.0540372818337354 0.7760739953069932
C 1.4125679353906784 2.3475024653320498 -0.2700833032491587
C -1.295711561700007 -1.308119518223761 -0.6049118580770716
C -1.2112642274348775 -1.180042820600509 -0.5255398096685896
26
Mode 7 - Frame 7
C -2.1751703254042294 0.21642323704054506 1.5800831702554032
C -2.918974999575493 0.41871214971515114 0.7642051757727275
C -2.3602500952874097 0.7786765464775078 2.592269893577796
C -2.1431983263979033 -0.8763003155752791 1.8174059097597046
C -0.8626737550232066 0.6792021031926959 0.9712678156111447
C -0.37280023049974614 1.7209527711964225 1.4036365229316135
C -0.3295543687051522 -0.04796122269067149 -0.05098990156116748
C 4.442642578221291 2.3880896862991507 -0.8092760971779683
C 1.1277989395570438 0.038890173065455946 -0.30689881365929994
C 1.723337350654821 -0.12246591491721434 0.6103709404199303
C 1.5581225205630205 1.4525517097472365 -0.7977697801181179
C 2.9832122991026364 1.6791449635290796 -0.6260499443468331
C 1.4461136664154846 -1.028089594168161 -1.3827541457057573
C 1.2132681584140577 -2.029798121760817 -0.9795073758649637
C 0.8640401603007947 -0.8494942844936066 -2.29184390706959
C 2.527991358451108 -1.0009343131273203 -1.5870705469618898
C 1.2569015774202306 2.442889620551501 0.00999152744118199
C 0.264053445563382 2.3337526824870696 -0.0938787352620553
C 1.6447869329299718 3.834874617142155 -0.12510970511110725
C 2.6129941417291733 3.8462133595763843 -0.816580738889258
C 0.7410508207076939 4.497391237605678 -0.6210525147230864
C 1.978188669655809 4.179189439140788 0.946848332930911
C 0.10564155701004119 1.0537538357541623 0.771934596997242
C 1.415071090162117 2.3467220651275316 -0.26867414045445553
C -1.3080555976002044 -1.2985649856273431 -0.6227773866215024
C -1.2229424921922982 -1.1712046526640625 -0.5424391477328672
26
Mode 7 - Frame 8
C -2.1751703254042294 0.21642323704054506 1.5800831702554032
C -2.918974999575493 0.41871214971515114 0.7642051757727275
C -2.3602500952874097 0.7786765464775078 2.592269893577796
C -2.1431983263979033 -0.8763003155752791 1.8174059097597046
C -0.8626737550232066 0.6792021031926959 0.9712678156111447
C -0.37280023049974614 1.7209527711964225 1.4036365229316135
C -0.32955436870515226 -0.047961222690671476 -0.05098990156116748
C 4.442642578221291 2.3880896862991507 -0.8092760971779682
C 1.1277989395570436 0.03889017306545594 -0.30689881365929994
C 1.723337350654821 -0.12246591491721434 0.6103709404199303
C 1.5581225205630205 1.4525517097472365 -0.7977697801181179
C 2.9832122991026364 1.6791449635290796 -0.626049944346833
C 1.4461136664154846 -1.028089594168161 -1.3827541457057573
C 1.2132681584140577 -2.029798121760817 -0.9795073758649637
C 0.8640401603007947 -0.8494942844936066 -2.29184390706959
C 2.527991358451108 -1.0009343131273203 -1.5870705469618898
C 1.2569015774202306 2.442889620551501 0.00999152744118199
C 0.264053445563382 2.3337526824870696 -0.0938787352620553
C 1.6447869329299718 3.834874617142155 -0.12510970511110728
C 2.6129941417291733 3.8462133595763843 -0.816580738889258
C 0.7410508207076939 4.497391237605678 -0.6210525147230865
C 1.978188669655809 4.179189439140788 0.946848332930911
C 0.10564155701004119 1.0537538357541623 0.771934596997242
C 1.415071090162117 2.3467220651275316 -0.26867414045445553
C -1.3080555976002046 -1.2985649856273431 -0.6227773866215024
C -1.2229424921922982 -1.1712046526640625 -0.5424391477328672
26
Mode 7 - Frame 9
C -2.1773430807209193 0.21795844407277784 1.5735407520863978
C -2.9150847576215773 0.4098507715171742 0.7538459040139192
C -2.3724160329385584 0.7875605949261546 2.571781874587124
C -2.1455994650757226 -0.8698494238064103 1.8210831859330936
C -0.86070775789362 0.678414885853476 0.9754024946059449
C -0.37185287993496585 1.7206049992603119 1.4073531088510716
C -0.3216876044312238 -0.05246812662275739 -0.038221114932937145
C 4.423378503982594 2.394860948820452 -0.8422973698173987
C 1.1324095611421614 0.04001466804133871 -0.30139307675316196
C 1.7298521022262374 -0.11593082835678059 0.6143706666359878
C 1.5522215143683478 1.4523663719804314 -0.7989112079285926
C 2.963645569565537 1.6852556907519909 -0.6520644766952818
C 1.4544127618098415 -1.0302603376807036 -1.3714161461573517
C 1.2262477774620613 -2.0300067115661915 -0.9635790881099507
C 0.8704287061930278 -0.8587746604968042 -2.2798135382046096
C 2.5346844399523256 -0.999422716162838 -1.5795054860940152
C 1.256512535772459 2.4429818542601245 0.0095548497473343
C 0.2637451761460752 2.33402572024034 -0.08977578405095173
C 1.6497785920160335 3.8325200378539472 -0.11964181065477977
C 2.602854884504205 3.8503122858011283 -0.8205324944795503
C 0.748609529745006 4.497592662637605 -0.5939095396890807
C 1.9957934576950653 4.168735712892065 0.945106769568314
C 0.10763266492147368 1.0540372818337354 0.7760739953069932
C 1.4125679353906784 2.3475024653320498 -0.2700833032491587
C -1.2957115617000072 -1.308119518223761 -0.6049118580770716
C -1.2112642274348775 -1.180042820600509 -0.5255398096685896
26
Mode 7 - Frame 10
C -2.181593631520922 0.22096176222319414 1.5607418508163777
C -2.9074742959545836 0.3925152998700821 0.7335801103814634
C -2.3962161983868544 0.804940416275848 2.531701261348095
C -2.1502968011491985 -0.8572295751937852 1.8282770236655654
C -0.8568616871429104 0.6768748563502481 0.9834911472830812
C -0.36999958257097865 1.7199246546904936 1.4146238480511493
C -0.30629789123106066 -0.06128496115857257 -0.013241598923566217
C 4.385692287988716 2.40810753719875 -0.9068967270282701
C 1.1414292980249103 0.04221451216673261 -0.29062223006314103
C 1.7425968794641526 -0.10314626987742859 0.6221953118396454
C 1.5406774042658786 1.4520037965965797 -0.8011441776770459
C 2.9253672704636946 1.6972100770956497 -0.7029565814969759
C 1.470648242306344 -1.0345069527979078 -1.3492356720465644
C 1.251639743922548 -2.030414774801521 -0.9324186552072236
C 0.8829265878663594 -0.8769298155396748 -2.256278585322163
C 2.5477780831761896 -0.9964655862746682 -1.564705993819382
C 1.255751455463752 2.4431622906217183 0.008700579270272115
C 0.2631421101642387 2.3345598626868824 -0.08174920028481406
C 1.6595437507334583 3.827913785690952 -0.10894499496773491
C 2.5830195042485546 3.858330995505764 -0.8282632949782123
C 0.7633965959639899 4.497986709461021 -0.5408098678764998
C 2.030233620059117 4.148285138394232 0.9416997575190137
C 0.11152785977421327 1.054591786039079 0.7841718803573224
C 1.4076710257227822 2.349029158507373 -0.2728400416625231
C -1.271562983501707 -1.3268110044943997 -0.5699616103139191
C -1.1884180941284668 -1.197332886124344 -0.49247971570546456
26
Mode 7 - Frame 11
C -2.1877362083378733 0.22530193207710134 1.5422458398467855
C -2.896476228268407 0.3674633780696751 0.7042935073031658
C -2.4306104101963424 0.8300564289359706 2.4737797689873755
C -2.1570850384916014 -0.8389923176785279 1.8386730177283477
C -0.8513036345183791 0.6746493213621847 0.9951802607069011
C -0.36732133639569803 1.718941471809324 1.4251309743399259
C -0.2840578334195473 -0.0740263883210358 0.022856921752318987
C 4.331230998717118 2.427250511957731 -1.0002508669183594
C 1.1544639444220144 0.04539356169733463 -0.27505701127384785
C 1.7610146744470436 -0.08467098603182396 0.6335029014886896
C 1.5239947232618773 1.4514798298797857 -0.8043710978704927
C 2.8700503471475187 1.7144856585133281 -0.7765020295646683
C 1.494110539500816 -1.0406438420616317 -1.3171821165257596
C 1.2883343070170212 -2.0310044771453164 -0.887387937598978
C 0.9009875879201745 -0.9031662822287452 -2.2222676387964473
C 2.5667000330835457 -0.9921921642288076 -1.543318878966234
C 1.2546515993556693 2.4434230437014506 0.007466051729087614
C 0.26227060449511047 2.3353317652386836 -0.07014978419004471
C 1.6736556247878644 3.821257175975942 -0.09348676022451312
C 2.554354902260108 3.8699190325981614 -0.8394352673069555
C 0.7847657536146593 4.498556156338894 -0.46407420974404884
C 2.0800039563904202 4.118731503885588 0.9367761995582221
C 0.11715690286197657 1.0553931138756132 0.7958743357135669
C 1.4005943796088953 2.3512354208358524 -0.27682387299758626
C -1.2366652717503044 -1.3538225367975294 -0.5194541368691904
C -1.155402577926467 -1.2223191904052368 -0.4447037505896122
26
Mode 7 - Frame 12
C -2.1955023510895173 0.2307892673854381 1.5188610836106997
C -2.882571222895517 0.33578989531108894 0.667266059866261
C -2.474095476269209 0.8618109426332752 2.400548844659286
C -2.165667498557491 -0.8159347069261259 1.851816813295383
C -0.8442765135902135 0.6718355474475658 1.0099589645301943
C -0.3639351936186349 1.7176984204265453 1.4384152758797961
C -0.25593942824268456 -0.09013554660299655 0.06849676852126182
C 4.262374855843229 2.4514532332422423 -1.1182797656116061
C 1.1709438237387477 0.049412876913885344 -0.25537769513658093
C 1.7843005411557722 -0.0613124353782675 0.6477992396556222
C 1.502902584568604 1.4508173716898445 -0.8084509366119984
C 2.800112414605973 1.7363274091996366 -0.8694865319075862
C 1.523774238421266 -1.0484027939629885 -1.2766563737812209
C 1.334727738258203 -2.031750045775448 -0.8304549937260511
C 0.9238223539858279 -0.9363374010731682 -2.1792671401932635
C 2.590623309665853 -0.9867892190748144 -1.5162788610804177
C 1.253261036437829 2.443752717338506 0.005905221901250942
C 0.2611687481183795 2.3363076920502297 -0.05548448591015889
C 1.6914974575667896 3.8128411344954207 -0.07394270546023322
C 2.518113859193781 3.8845699442518105 -0.8535601426659429
C 0.8117830679670852 4.499276115710153 -0.3670562817706566
C 2.142929264166726 4.081366445008234 0.9305512787946782
C 0.12427377799068276 1.0564062434716839 0.8106699079220474
C 1.3916472804417102 2.3540248280669127 -0.28186068470846215
C -1.1925436239071359 -1.3879735815557912 -0.4555968566941674
C -1.1136606153129294 -1.2539097120485219 -0.3842999532511111
26
Mode 7 - Frame 13
C -2.20455264207152 0.2371839452640739 1.4916096081681476
C -2.8663669952943276 0.29887913477710676 0.6241160452011479
C -2.5247708905535715 0.898816132744127 2.315209031157926
C -2.1756690866587753 -0.7890644711691513 1.8671339634294628
C -0.8360874432628419 0.6685565100284456 1.027181358479794
C -0.3599891449276627 1.7162498278524072 1.4538961649483162
C -0.2231715849337792 -0.10890838848721535 0.12168326107517655
C 4.182133203219068 2.4796579259946094 -1.2558249938696222
C 1.1901486861697341 0.05409679445460723 -0.23244436219837478
C 1.8114367754771814 -0.034091498667081485 0.6644595077611064
C 1.478322815858265 1.4500453746284834 -0.8132053853713207
C 2.718610096090558 1.7617807398412355 -0.9778462195841979
C 1.5583428930826502 -1.0574447050723068 -1.229429613234974
C 1.3887924220804715 -2.0326188957651445 -0.7641080664302651
C 0.9504328972128858 -0.9749934350067544 -2.1291564176408575
C 2.618502350939847 -0.9804928854421253 -1.4847677186959445
C 1.2516405409824016 2.4441369032129945 0.004086305539931048
C 0.2598846974450025 2.3374449904368397 -0.0383942493518964
C 1.712289475363182 3.8030334826467342 -0.05116699965087404
C 2.475880282535392 3.901643415324574 -0.870020596223315
C 0.8432677527406086 4.500115121895525 -0.2539962329524299
C 2.2162594054890827 4.037822994132554 0.9232970541362329
C 0.1325674435666516 1.0575868962024075 0.8279119594802211
C 1.3812207593877774 2.3572754697194958 -0.2877303439540814
C -1.141126367702104 -1.4277715742383545 -0.38118063935372565
C -1.0650165303542247 -1.2907237936702463 -0.3139082594832318
26
Mode 7 - Frame 14
C -2.214491540139854 0.24420648760464342 1.4616824337630563
C -2.848571747967522 0.2583442738205437 0.5767293260054349
C -2.5804218942775865 0.9394546948900782 2.2214900878391646
C -2.186652685402484 -0.7595559686478806 1.883955035169887
C -0.8270943252050895 0.6649555187746069 1.0460947412978872
C -0.3556556515858193 1.714659004533518 1.4708970524076443
C -0.18718641548298798 -0.12952445070126198 0.1800918944723497
C 4.094012986106482 2.5106319098004217 -1.4068751652022993
C 1.211239187071585 0.05924060464704071 -0.20725930915496993
C 1.8412373937573263 -0.004197861453091315 0.6827555721440965
C 1.451329670970319 1.449197578671737 -0.8184266519233011
C 2.6291054340119135 1.7897332177504555 -1.0968452542755645
C 1.596305687397457 -1.0673744004862062 -1.1775658709420302
C 1.4481654723696566 -2.033573054200651 -0.6912468348023253
C 0.9796562091707725 -1.0174449298543748 -2.0741255501726936
C 2.6491187090233717 -0.9735783433236498 -1.4501626399422536
C 1.2498609364167894 2.4445588105586733 0.0020887980182466865
C 0.2584745716509647 2.3386939550016566 -0.01962599986090702
C 1.735122967228169 3.7922628618780054 -0.026155050430266665
C 2.429499982244097 3.920393253202967 -0.8880972271725949
C 0.8778437761303468 4.501036506298711 -0.1298353299450319
C 2.296789501304645 3.990004209006477 0.915330570010092
C 0.14167542660679028 1.0588834718780513 0.8468469299984529
C 1.3697705054491536 2.3608452771550743 -0.29417631845966047
C -1.084660683958738 -1.4714771515930343 -0.29945783063427195
C -1.0115963029832662 -1.3311524832499777 -0.2366051240804533
26
Mode 7 - Frame 15
C -2.224884667756808 0.2515499756089669 1.430387521523444
C -2.8299632186143517 0.21595688037304464 0.5271769292946815
C -2.6386162715353705 0.9819505288998942 2.1234879822394164
C -2.198138258818363 -0.7286988625199983 1.9015448669651414
C -0.8176902018298486 0.6611899542833156 1.0658725073988435
C -0.3511241080465515 1.71299547708253 1.4886749178964989
C -0.14955664447131162 -0.15108271239954035 0.24116993115760568
C 4.001865480841006 2.543021472937701 -1.5648286623032597
C 1.233293570351438 0.06461949830303662 -0.1809232436756559
C 1.8723999659781325 0.02706198087186526 0.7018878069967983
C 1.4231028798638485 1.4483110365710914 -0.8238865418652012
C 2.5355102115938952 1.8189631855117927 -1.2212828071449506
C 1.6360034650884314 -1.0777579048671344 -1.123331841310438
C 1.5102520019246164 -2.0345708197797756 -0.6150556842913527
C 1.010215090897919 -1.0618365515863157 -2.016579650764531
C 2.6811343021545917 -0.9663477913896195 -1.4139760328144724
C 1.248 2.445 5.691919667990008e-18
C 0.257 2.34 -5.348033349152333e-17
C 1.759 3.781 -7.127182459042506e-17
C 2.381 3.94 -0.907
C 0.9139999999999999 4.502 -3.5379785965826303e-16
C 2.3809999999999993 3.94 0.907
C 0.15119966454729314 1.0602393039199292 0.8666472704050266
C 1.3577969496673705 2.364578232658877 -0.30091688820808804
C -1.0256143940090356 -1.5171801701668024 -0.2140001094263909
C -0.9557346534748559 -1.3734288530547054 -0.155769065001476
26
Mode 7 - Frame 16
C -2.235277795373762 0.2588934636132904 1.3990926092838318
C -2.8113546892611816 0.1735694869255454 0.47762453258392795
C -2.6968106487931545 1.0244463629097105 2.0254858766396677
C -2.2096238322342416 -0.6978417563921158 1.9191346987603957
C -0.8082860784546078 0.6574243897920243 1.0856502734998
C -0.34659256450728365 1.711331949631542 1.5064527833853534
C -0.11192687345963508 -0.1726409740978188 0.30224796784286195
C 3.90971797557553 2.5754110360749802 -1.7227821594042207
C 1.255347953631291 0.06999839195903255 -0.15458717819634174
C 1.9035625381989387 0.05832182319682197 0.7210200418495001
C 1.3948760887573783 1.4474244944704457 -0.8293464318071012
C 2.4419149891758765 1.84819315327313 -1.3457203600143375
C 1.6757012427794058 -1.0881414092480626 -1.0690978116788457
C 1.5723385314795766 -2.0355685853589 -0.5388645337803798
C 1.0407739726250655 -1.1062281733182568 -1.9590337513563683
C 2.7131498952858113 -0.9591172394555891 -1.3777894256866912
C 1.2461390635832106 2.4454411894413264 -0.002088798018246684
C 0.2555254283490353 2.341306044998343 0.019625999860907
C 1.7828770327718308 3.769737138121995 0.026155050430266634
C 2.3325000177559025 3.959606746797033 -0.9259027728274052
C 0.9501562238696533 4.502963493701288 0.12983532994503175
C 2.4652104986953542 3.889995790993523 0.8986694299899082
C 0.16072390248779606 1.061595135961807 0.8864476108116004
C 1.3458233938855875 2.3683111881626795 -0.3076574579565156
C -0.9665681040593328 -1.562883188740571 -0.1285423882185095
C -0.8998730039664453 -1.4157052228594336 -0.07493300592249834
26
Mode 7 - Frame 17
C -2.245216693442096 0.26591600595385995 1.3691654348787405
C -2.793559441934376 0.13303462596898225 0.4302378133882149
C -2.7524616525171695 1.0650849250556618 1.9317669333209058
C -2.2206074309779504 -0.668333253870845 1.93595577050082
C -0.7992929603968554 0.6538233985381856 1.104563656317893
C -0.34225907116544024 1.7097411263126527 1.5234536708446815
C -0.07594170400884379 -0.19325703631186547 0.3606566012400352
C 3.8215977584629437 2.6063850198807925 -1.873832330736898
C 1.276438454533142 0.07514220215146604 -0.1294021251529368
C 1.9333631564790836 0.0882154604108122 0.7393161062324902
C 1.367882943869432 1.4465766985136994 -0.8345676983590816
C 2.3524103270972314 1.87614563118235 -1.4647193947057042
C 1.7136640370942127 -1.098071104661962 -1.0172340693859014
C 1.631711581768762 -2.0365227437944067 -0.4660033021524399
C 1.0699972845829522 -1.1486796681658775 -1.9040028838882044
C 2.7437662533693365 -0.9522026973371136 -1.343184346933
C 1.2443594590175984 2.445863096787005 -0.004086305539931049
C 0.25411530255499754 2.34255500956316 0.03839424935189642
C 1.8057105246368177 3.758966517353266 0.05116699965087406
C 2.2861197174646075 3.978356584675426 -0.9439794037766851
C 0.9847322472593915 4.503884878104475 0.25399623295243
C 2.545740594510917 3.8421770058674456 0.8907029458637672
C 0.16983188552793477 1.0628917116374508 0.9053825813298322
C 1.3343731399469636 2.371880995598258 -0.31410343246209466
C -0.9101024203159668 -1.6065887660952507 -0.0468195794990556
C -0.8464527765954867 -1.456133912439165 0.002370129480280314
26
Mode 7 - Frame 18
C -2.2542669844240986 0.27231068383249574 1.3419139594361884
C -2.7773552143331863 0.09612386543500019 0.38708779872310184
C -2.803137066801532 1.1020901151665135 1.846427119819546
C -2.230609019079235 -0.6414630181138704 1.9512729206348995
C -0.7911038900694838 0.6505443611190654 1.1217860502674928
C -0.33831302247446804 1.7082925337385146 1.5389345599132016
C -0.043173860699938504 -0.21202987819608426 0.4138430937939498
C 3.741356105838783 2.6345897126331597 -2.011377558994914
C 1.2956433169641284 0.07982611969218792 -0.10646879221473071
C 1.9604993908004928 0.11543639712199814 0.7559763743379744
C 1.3433031751590931 1.4458047014523383 -0.8393221471184039
C 2.2709080085818165 1.9015989618239486 -1.573079082382316
C 1.7482326917555968 -1.1071130157712803 -0.9700073088396548
C 1.6857762655910302 -2.037391593784103 -0.39965637485665395
C 1.0966078278100102 -1.1873357020994635 -1.8538921613357981
C 2.7716452946433305 -0.9459063637044245 -1.311673204548527
C 1.242738963562171 2.446247282661494 -0.00590522190125094
C 0.25283125188162053 2.34369230794977 0.05548448591015887
C 1.8265025424332102 3.7491588655045796 0.0739427054602332
C 2.2438861408062185 3.995430055748189 -0.9604398573340571
C 1.0162169320329149 4.504723884289847 0.3670562817706564
C 2.619070735833273 3.7986335549917665 0.8834487212053218
C 0.17812555110390355 1.0640723643681744 0.9226246328880058
C 1.3239466188930311 2.375131637250841 -0.31997309170771393
C -0.858685164110935 -1.646386758777814 0.027596637841385968
C -0.7978086916367824 -1.4929479940608894 0.07276182324815944
26
Mode 7 - Frame 19
C -2.2620331271757426 0.27779801914083246 1.3185292032001028
C -2.7634502089602964 0.06445038267641409 0.3500603512861972
C -2.846622132874398 1.1338446288638178 1.7731961954914564
C -2.2391914791451244 -0.6184054073614685 1.9644167162019348
C -0.7840767691413182 0.6477305872044465 1.136564754090786
C -0.3349268796974049 1.7070494823557358 1.5522188614530716
C -0.015055455523075773 -0.22813903647804498 0.4594829405628926
C 3.672499962964894 2.6587924339176707 -2.1294064576881606
C 1.3121231962808617 0.08384543490873864 -0.08678947607746383
C 1.9837852575092214 0.1387949477755546 0.770272712504907
C 1.3222110364658197 1.445142243262397 -0.8434019858599096
C 2.2009700760402713 1.9234407125102573 -1.6660635847252336
C 1.7778963906760468 -1.114871967672637 -0.9294815660951163
C 1.732169696832212 -2.038137162414235 -0.3427234309837271
C 1.1194425938756636 -1.2205068209438865 -1.8108916627326146
C 2.7955685712256377 -0.9405034185504313 -1.2846331866627108
C 1.2413484006443307 2.446576956298549 -0.007466051729087609
C 0.25172939550488954 2.344668234761316 0.07014978419004467
C 1.8443443752121353 3.7407428240240583 0.09348676022451306
C 2.2076450977398916 4.010080967401839 -0.9745647326930446
C 1.0432342463853406 4.505443843661106 0.46407420974404856
C 2.6819960436095793 3.761268496114412 0.877223800441778
C 0.18524242623260975 1.0650854939642451 0.9374202050964864
C 1.3149995197258457 2.3779210444819014 -0.3250099034185898
C -0.8145635162677665 -1.6805378035360756 0.09145391801640892
C -0.7560667290232447 -1.5245385157041744 0.13316562058666045
26
Mode 7 - Frame 20
C -2.2681757039926937 0.2821381889947397 1.3000331922305104
C -2.75245214127412 0.039398460876006985 0.3207737482078995
C -2.8810163446838866 1.1589606415239406 1.7152747031307367
C -2.2459797164875273 -0.6001681498462113 1.9748127102647173
C -0.7785187165167868 0.6455050522163831 1.148253867514606
C -0.3322486335221243 1.7060662994745663 1.5627259877418485
C 0.007184602288437619 -0.24088046364050822 0.4955814612387779
C 3.6180386736932952 2.677935408676652 -2.22276059757825
C 1.3251578426779658 0.08702448443934066 -0.07122425728817063
C 2.002203052492112 0.15727023162115925 0.7815803021539512
C 1.3055283554618184 1.444618276545603 -0.8466289060533564
C 2.145653152724095 1.9407162939279357 -1.7396090327929261
C 1.8013586878705188 -1.121008856936361 -0.8974280105743115
C 1.7688642599266853 -2.03872686475803 -0.2976927133754814
C 1.1375035939294786 -1.2467432876329572 -1.7768807162068985
C 2.814490521132994 -0.9362299965045707 -1.263246071809563
C 1.2402485445362479 2.4468377093782814 -0.008700579270272114
C 0.2508578898357613 2.3454401373131173 0.08174920028481404
C 1.8584562492665413 3.7340862143090483 0.10894499496773488
C 2.178980495751445 4.021669004494235 -0.9857367050217878
C 1.0646034040360102 4.506013290538979 0.5408098678764997
C 2.7317663799408827 3.7317148616057683 0.8723002424809864
C 0.19087146932037305 1.0658868218007793 0.9491226604527307
C 1.3079228736119588 2.380127306810381 -0.32899373475365296
C -0.779665804516364 -1.7075493358392055 0.14196139146113765
C -0.7230512128212448 -1.5495248199850673 0.18094158570251287
26
Mode 7 - Frame 21
C -2.2724262547926966 0.28514150714515596 1.2872342909604904
C -2.7448416796071267 0.022062989228914892 0.30050795457544366
C -2.9048165101321826 1.176340462873634 1.6751940898917077
C -2.250677052561003 -0.587548301233586 1.9820065479971891
C -0.7746726457660773 0.6439650227131553 1.156342520191742
C -0.3303953361581371 1.705385954904748 1.5699967269419262
C 0.022574315488600755 -0.2496972981763234 0.5205609772481488
C 3.5803524576994175 2.69118199705495 -2.2873599547891215
C 1.3341775795607147 0.08922432856473456 -0.06045341059814971
C 2.0149478297300276 0.17005479010051128 0.7894049473576088
C 1.2939842453593493 1.4442557011617514 -0.8488618758018097
C 2.1073748536222525 1.9526706802715945 -1.7905011375946205
C 1.8175941683670211 -1.1252554720535652 -0.8752475364635239
C 1.794256226387172 -2.0391349279933597 -0.26653228047275423
C 1.1500014756028103 -1.2648984426758276 -1.753345763324452
C 2.8275841643568578 -0.933272866616401 -1.2484465795349295
C 1.239487464227541 2.447018145739875 -0.009554849747334298
C 0.25025482385392483 2.34597427975966 0.08977578405095171
C 1.8682214079839663 3.729479962146053 0.11964181065477976
C 2.1591451154957944 4.029687714198872 -0.9934675055204497
C 1.079390470254994 4.506407337362394 0.5939095396890806
C 2.7662065423049342 3.711264287107935 0.8688932304316861
C 0.19476666417311267 1.066441326006123 0.9572205455030601
C 1.3030259639440627 2.381653999985704 -0.3317504731670174
C -0.7555172263180638 -1.7262408221098442 0.17691163922429023
C -0.700205079514834 -1.5668148855089024 0.21400167966563802
26
Mode 7 - Frame 22
C -2.2745990101093865 0.28667671417738877 1.2806918727914849
C -2.7409514376532105 0.013201611030937893 0.2901486828166353
C -2.9169824477833313 1.1852245113222808 1.6547060709010357
C -2.2530781912388225 -0.5810974094647172 1.985683824170578
C -0.7727066486364906 0.6431778053739353 1.1604771991865424
C -0.3294479855933568 1.7050381829686374 1.5737133128613843
C 0.030441079762529216 -0.2542042021084093 0.5333297638763792
C 3.561088383460721 2.697953259576251 -2.320381227428552
C 1.3387882011458323 0.09034882354061732 -0.0549476736920117
C 2.021462581301444 0.17658987666094503 0.7934046735736663
C 1.2880832391646766 1.4440703633949463 -0.8500033036122844
C 2.087808124085153 1.9587814074945058 -1.816515669943069
C 1.8258932637613783 -1.127426215566108 -0.8639095369151184
C 1.8072358454351756 -2.0393435177987342 -0.2506039927177413
C 1.1563900214950436 -1.2741788186790253 -1.7413153944594715
C 2.8342772458580754 -0.9317612696519186 -1.240881518667055
C 1.2390984225797694 2.4471103794484987 -0.00999152744118199
C 0.24994655443661803 2.34624731751293 0.0938787352620553
C 1.873213067070028 3.7271253828578454 0.12510970511110725
C 2.1490058582708262 4.033786640423616 -0.9974192611107421
C 1.086949179292306 4.506608762394322 0.6210525147230864
C 2.7838113303441903 3.7008105608592117 0.8671516670690891
C 0.19675777208454515 1.066724772085696 0.9613599438128113
C 1.300522809172624 2.3824344001902222 -0.33315963596172055
C -0.7431731904178663 -1.7357953547062621 0.19477716776872103
C -0.6885268147574133 -1.5756530534453488 0.2309010177299156
26
Mode 7 - Frame 23
C -2.2745990101093865 0.28667671417738877 1.2806918727914849
C -2.7409514376532105 0.013201611030937893 0.29014868281663525
C -2.9169824477833313 1.1852245113222808 1.6547060709010357
C -2.2530781912388225 -0.5810974094647172 1.985683824170578
C -0.7727066486364906 0.6431778053739353 1.1604771991865424
C -0.3294479855933568 1.7050381829686374 1.5737133128613843
C 0.030441079762529244 -0.2542042021084093 0.5333297638763792
C 3.561088383460721 2.697953259576251 -2.320381227428552
C 1.3387882011458325 0.09034882354061732 -0.0549476736920117
C 2.021462581301444 0.17658987666094503 0.7934046735736663
C 1.2880832391646766 1.4440703633949463 -0.8500033036122844
C 2.087808124085153 1.9587814074945058 -1.8165156699430691
C 1.8258932637613783 -1.127426215566108 -0.8639095369151184
C 1.8072358454351756 -2.0393435177987342 -0.25060399271774125
C 1.1563900214950436 -1.2741788186790253 -1.7413153944594715
C 2.8342772458580754 -0.9317612696519186 -1.240881518667055
C 1.2390984225797694 2.4471103794484987 -0.00999152744118199
C 0.24994655443661803 2.34624731751293 0.0938787352620553
C 1.873213067070028 3.7271253828578454 0.12510970511110728
C 2.1490058582708262 4.033786640423616 -0.9974192611107421
C 1.0869491792923063 4.506608762394322 0.6210525147230865
C 2.7838113303441903 3.7008105608592117 0.8671516670690891
C 0.19675777208454515 1.066724772085696 0.9613599438128113
C 1.300522809172624 2.3824344001902222 -0.33315963596172055
C -0.7431731904178662 -1.7357953547062621 0.1947771677687211
C -0.6885268147574133 -1.5756530534453488 0.23090101772991564
26
Mode 7 - Frame 24
C -2.2724262547926966 0.285141507145156 1.2872342909604904
C -2.744841679607126 0.022062989228914864 0.30050795457544366
C -2.9048165101321826 1.176340462873634 1.6751940898917077
C -2.250677052561003 -0.587548301233586 1.9820065479971891
C -0.7746726457660773 0.6439650227131553 1.156342520191742
C -0.3303953361581371 1.705385954904748 1.5699967269419262
C 0.022574315488600782 -0.2496972981763234 0.5205609772481489
C 3.5803524576994175 2.69118199705495 -2.2873599547891215
C 1.3341775795607147 0.08922432856473456 -0.060453410598149696
C 2.0149478297300276 0.17005479010051128 0.7894049473576088
C 1.2939842453593493 1.4442557011617514 -0.8488618758018097
C 2.1073748536222525 1.9526706802715945 -1.7905011375946205
C 1.8175941683670214 -1.1252554720535652 -0.8752475364635239
C 1.794256226387172 -2.0391349279933597 -0.26653228047275423
C 1.1500014756028103 -1.2648984426758276 -1.7533457633244518
C 2.8275841643568578 -0.933272866616401 -1.2484465795349295
C 1.239487464227541 2.447018145739875 -0.0095548497473343
C 0.25025482385392483 2.34597427975966 0.08977578405095173
C 1.8682214079839663 3.729479962146053 0.11964181065477977
C 2.1591451154957944 4.029687714198872 -0.9934675055204497
C 1.079390470254994 4.506407337362394 0.5939095396890807
C 2.7662065423049342 3.711264287107935 0.8688932304316861
C 0.19476666417311267 1.066441326006123 0.9572205455030601
C 1.3030259639440627 2.381653999985704 -0.3317504731670174
C -0.7555172263180637 -1.7262408221098442 0.1769116392242903
C -0.700205079514834 -1.5668148855089024 0.21400167966563807
26
Mode 7 - Frame 25
C -2.2681757039926937 0.2821381889947397 1.3000331922305104
C -2.75245214127412 0.03939846087600696 0.32077374820789945
C -2.8810163446838866 1.1589606415239406 1.7152747031307367
C -2.2459797164875273 -0.6001681498462113 1.9748127102647173
C -0.7785187165167868 0.6455050522163831 1.148253867514606
C -0.3322486335221243 1.7060662994745663 1.5627259877418485
C 0.007184602288437647 -0.24088046364050825 0.4955814612387779
C 3.6180386736932952 2.677935408676652 -2.22276059757825
C 1.3251578426779658 0.08702448443934066 -0.07122425728817061
C 2.002203052492112 0.15727023162115927 0.7815803021539512
C 1.3055283554618184 1.444618276545603 -0.8466289060533564
C 2.145653152724095 1.9407162939279357 -1.7396090327929261
C 1.8013586878705188 -1.121008856936361 -0.8974280105743114
C 1.7688642599266853 -2.03872686475803 -0.2976927133754814
C 1.1375035939294786 -1.2467432876329572 -1.7768807162068985
C 2.814490521132994 -0.9362299965045707 -1.263246071809563
C 1.2402485445362479 2.4468377093782814 -0.008700579270272114
C 0.2508578898357613 2.3454401373131173 0.08174920028481404
C 1.8584562492665413 3.7340862143090483 0.1089449949677349
C 2.178980495751445 4.021669004494235 -0.9857367050217878
C 1.0646034040360102 4.506013290538979 0.5408098678764998
C 2.7317663799408827 3.7317148616057683 0.8723002424809864
C 0.19087146932037305 1.0658868218007793 0.9491226604527309
C 1.3079228736119588 2.380127306810381 -0.32899373475365296
C -0.7796658045163639 -1.7075493358392055 0.1419613914611377
C -0.7230512128212447 -1.5495248199850673 0.18094158570251292
26
Mode 7 - Frame 26
C -2.2620331271757426 0.27779801914083246 1.3185292032001028
C -2.7634502089602964 0.06445038267641409 0.3500603512861972
C -2.846622132874398 1.1338446288638178 1.7731961954914564
C -2.2391914791451244 -0.6184054073614685 1.9644167162019348
C -0.7840767691413182 0.6477305872044465 1.136564754090786
C -0.3349268796974049 1.7070494823557358 1.5522188614530716
C -0.015055455523075773 -0.22813903647804498 0.4594829405628926
C 3.672499962964894 2.6587924339176707 -2.1294064576881606
C 1.3121231962808617 0.08384543490873864 -0.08678947607746383
C 1.9837852575092214 0.1387949477755546 0.770272712504907
C 1.3222110364658197 1.445142243262397 -0.8434019858599096
C 2.2009700760402713 1.9234407125102573 -1.6660635847252336
C 1.7778963906760468 -1.114871967672637 -0.9294815660951163
C 1.732169696832212 -2.038137162414235 -0.3427234309837271
C 1.1194425938756636 -1.2205068209438865 -1.8108916627326146
C 2.7955685712256377 -0.9405034185504313 -1.2846331866627108
C 1.2413484006443307 2.446576956298549 -0.007466051729087609
C 0.25172939550488954 2.344668234761316 0.07014978419004467
C 1.8443443752121353 3.7407428240240583 0.09348676022451306
C 2.2076450977398916 4.010080967401839 -0.9745647326930446
C 1.0432342463853406 4.505443843661106 0.46407420974404856
C 2.6819960436095793 3.761268496114412 0.877223800441778
C 0.18524242623260975 1.0650854939642451 0.9374202050964864
C 1.3149995197258457 2.3779210444819014 -0.3250099034185898
C -0.8145635162677665 -1.6805378035360756 0.09145391801640892
C -0.7560667290232447 -1.5245385157041744 0.13316562058666045
26
Mode 7 - Frame 27
C -2.2542669844240986 0.27231068383249574 1.3419139594361884
C -2.7773552143331863 0.09612386543500012 0.38708779872310173
C -2.803137066801532 1.1020901151665135 1.8464271198195459
C -2.230609019079235 -0.6414630181138704 1.9512729206348998
C -0.7911038900694838 0.6505443611190654 1.1217860502674928
C -0.33831302247446804 1.7082925337385146 1.5389345599132016
C -0.04317386069993845 -0.2120298781960843 0.4138430937939499
C 3.741356105838783 2.6345897126331597 -2.0113775589949143
C 1.2956433169641284 0.07982611969218793 -0.10646879221473067
C 1.9604993908004928 0.1154363971219982 0.7559763743379745
C 1.3433031751590931 1.4458047014523383 -0.8393221471184039
C 2.2709080085818165 1.9015989618239488 -1.573079082382316
C 1.748232691755597 -1.1071130157712803 -0.9700073088396547
C 1.6857762655910302 -2.037391593784103 -0.3996563748566538
C 1.0966078278100102 -1.1873357020994637 -1.853892161335798
C 2.7716452946433305 -0.9459063637044245 -1.311673204548527
C 1.242738963562171 2.446247282661494 -0.005905221901250943
C 0.25283125188162053 2.34369230794977 0.05548448591015891
C 1.8265025424332102 3.7491588655045796 0.07394270546023324
C 2.2438861408062185 3.9954300557481894 -0.9604398573340571
C 1.0162169320329149 4.504723884289847 0.36705628177065663
C 2.6190707358332737 3.798633554991766 0.8834487212053218
C 0.17812555110390357 1.0640723643681744 0.9226246328880059
C 1.323946618893031 2.375131637250841 -0.31997309170771393
C -0.8586851641109349 -1.646386758777814 0.027596637841386107
C -0.7978086916367823 -1.4929479940608894 0.07276182324815958
26
Mode 7 - Frame 28
C -2.245216693442096 0.26591600595385995 1.3691654348787405
C -2.793559441934376 0.13303462596898227 0.4302378133882149
C -2.7524616525171695 1.0650849250556618 1.9317669333209058
C -2.2206074309779504 -0.668333253870845 1.93595577050082
C -0.7992929603968554 0.6538233985381856 1.104563656317893
C -0.34225907116544024 1.7097411263126527 1.5234536708446815
C -0.0759417040088438 -0.19325703631186547 0.3606566012400352
C 3.8215977584629437 2.6063850198807925 -1.873832330736898
C 1.276438454533142 0.07514220215146604 -0.12940212515293684
C 1.9333631564790836 0.0882154604108122 0.7393161062324902
C 1.367882943869432 1.4465766985136994 -0.8345676983590816
C 2.3524103270972314 1.87614563118235 -1.4647193947057042
C 1.7136640370942127 -1.098071104661962 -1.0172340693859017
C 1.631711581768762 -2.0365227437944067 -0.4660033021524399
C 1.0699972845829522 -1.1486796681658775 -1.9040028838882044
C 2.7437662533693365 -0.9522026973371136 -1.3431843469330003
C 1.2443594590175984 2.445863096787005 -0.004086305539931049
C 0.25411530255499754 2.34255500956316 0.03839424935189641
C 1.8057105246368177 3.758966517353266 0.051166999650874054
C 2.2861197174646075 3.978356584675426 -0.9439794037766851
C 0.9847322472593915 4.503884878104475 0.25399623295243
C 2.545740594510917 3.8421770058674456 0.8907029458637672
C 0.16983188552793477 1.0628917116374508 0.9053825813298322
C 1.3343731399469636 2.371880995598258 -0.31410343246209466
C -0.9101024203159668 -1.6065887660952507 -0.04681957949905563
C -0.8464527765954867 -1.456133912439165 0.002370129480280314
26
Mode 7 - Frame 29
C -2.235277795373762 0.2588934636132904 1.3990926092838318
C -2.8113546892611816 0.17356948692554544 0.47762453258392795
C -2.6968106487931545 1.0244463629097105 2.0254858766396677
C -2.2096238322342416 -0.6978417563921158 1.9191346987603957
C -0.8082860784546078 0.6574243897920243 1.0856502734997997
C -0.34659256450728365 1.711331949631542 1.5064527833853534
C -0.11192687345963509 -0.17264097409781878 0.3022479678428619
C 3.90971797557553 2.5754110360749802 -1.7227821594042207
C 1.255347953631291 0.06999839195903255 -0.15458717819634177
C 1.9035625381989387 0.058321823196821956 0.7210200418495001
C 1.3948760887573783 1.4474244944704457 -0.8293464318071012
C 2.4419149891758765 1.84819315327313 -1.3457203600143375
C 1.6757012427794058 -1.0881414092480626 -1.0690978116788457
C 1.5723385314795766 -2.0355685853589 -0.5388645337803798
C 1.0407739726250655 -1.1062281733182568 -1.9590337513563683
C 2.7131498952858113 -0.9591172394555891 -1.3777894256866912
C 1.2461390635832106 2.4454411894413264 -0.002088798018246683
C 0.2555254283490353 2.341306044998343 0.01962599986090699
C 1.7828770327718308 3.769737138121995 0.026155050430266624
C 2.3325000177559025 3.959606746797033 -0.9259027728274052
C 0.9501562238696533 4.502963493701288 0.12983532994503172
C 2.4652104986953542 3.889995790993523 0.8986694299899082
C 0.16072390248779606 1.061595135961807 0.8864476108116004
C 1.3458233938855875 2.3683111881626795 -0.3076574579565156
C -0.9665681040593328 -1.562883188740571 -0.12854238821850955
C -0.8998730039664453 -1.4157052228594333 -0.07493300592249837
26
Mode 7 - Frame 30
C -2.224884667756808 0.25154997560896697 1.4303875215234438
C -2.8299632186143517 0.2159568803730443 0.5271769292946812
C -2.638616271535371 0.9819505288998945 2.1234879822394155
C -2.198138258818363 -0.7286988625199979 1.9015448669651414
C -0.8176902018298486 0.6611899542833156 1.0658725073988435
C -0.3511241080465515 1.71299547708253 1.4886749178964989
C -0.1495566444713113 -0.15108271239954052 0.24116993115760618
C 4.001865480841005 2.543021472937701 -1.564828662303261
C 1.2332935703514383 0.06461949830303666 -0.18092324367565568
C 1.8723999659781327 0.027061980871865517 0.7018878069967984
C 1.4231028798638483 1.4483110365710914 -0.8238865418652012
C 2.5355102115938943 1.818963185511793 -1.2212828071449517
C 1.6360034650884316 -1.0777579048671344 -1.1233318413104376
C 1.510252001924617 -2.0345708197797756 -0.615055684291352
C 1.0102150908979193 -1.0618365515863162 -2.0165796507645304
C 2.6811343021545917 -0.9663477913896195 -1.4139760328144722
C 1.248 2.445 -1.1383839335980015e-17
C 0.257 2.34 1.0696066698304666e-16
C 1.7590000000000001 3.781 1.4254364918085012e-16
C 2.3809999999999993 3.94 -0.9070000000000001
C 0.9140000000000003 4.502 7.075957193165261e-16
C 2.3810000000000002 3.9399999999999995 0.907
C 0.15119966454729322 1.0602393039199292 0.8666472704050268
C 1.3577969496673705 2.364578232658877 -0.3009168882080881
C -1.0256143940090352 -1.5171801701668028 -0.2140001094263902
C -0.9557346534748554 -1.3734288530547059 -0.15576906500147533
