23
Mode 10 - Frame 1
C -0.5873279741281281 -0.9153221378134148 0.669341542144548
C 0.4339125817869154 0.030733928104515182 0.1759501166091197
C 1.3115424284763968 0.5160989361559493 1.3302264768947452
C 2.1364532447701077 -0.3356918606055283 1.739316520462632
C -1.245253786471699 -0.4226457299301496 1.2841267329137454
C 0.5621563265582643 1.883697921265438 -0.9320714953963358
C -1.0966269055678808 -1.3698690103846674 -0.06897803630911072
C -0.7351392859279152 0.8011518226553686 -1.4773213101726166
C -0.1683911516152599 -1.591854007877368 1.292304331809701
C -0.9238956817320826 1.7297447085838145 0.026066565093231582
C -0.21056760785809384 1.184562608388433 -0.6061617870652394
C 1.092838790294517 -0.5077942225717471 -0.5003835073806144
C 0.7071328647235601 1.3672838054075451 2.182820530106815
C 0.3031467675019133 0.9332417411581189 3.536835627425521
C -1.076785740706098 0.2508933501251719 3.398564892921154
C 0.005987539048967774 1.9603067790850401 1.807451894804179
C 0.08603062528543773 1.9246983954048724 5.424067024344824
C 1.407194449455811 2.6608251187846337 4.4347261966982545
C -0.3310076067213023 2.89310552425913 4.050691193811592
C 0.46396132392870537 2.181967325777921 4.421547979861816
C 1.0675189240252707 0.24978320455548123 3.961147853132123
C -1.7647227722330068 0.7916743084760433 2.5052570135157826
C -0.6948225436380764 -1.0041054413876276 3.3223102150881303
23
Mode 10 - Frame 2
C -0.5659491468654897 -0.9228721194575813 0.6598590573599888
C 0.4541275857362748 0.030374119495562436 0.1756965326200811
C 1.312404034006864 0.5732965503539369 1.3228992897744771
C 2.0901992170956625 -0.3316503974674387 1.8157289403742094
C -1.241663196797603 -0.4389307710390117 1.2747921552596053
C 0.558978563381114 1.8810324555130038 -0.9393605740372598
C -1.069537368444376 -1.3865290048572878 -0.07713601756215951
C -0.7145585011831461 0.7725303465972252 -1.4957556549050848
C -0.15618934637449405 -1.5964867526982502 1.2872865782258076
C -0.9324267436409798 1.710896290291202 0.0009283133980248215
C -0.20383715633355362 1.1639685175343875 -0.624062870828088
C 1.1268397357411044 -0.5040137176936239 -0.48764741426726915
C 0.6052865553819116 1.3719596855738916 2.1774163132008835
C 0.23458725535692757 0.900319814830717 3.540527512777723
C -1.1726135538782603 0.2684191399114479 3.3820930116054164
C -0.062104617686211575 1.9777175508128781 1.8028713920758397
C 0.19922421903198503 1.9125003681139299 5.429121442380632
C 1.5559485263822865 2.611498999746642 4.4028118859832555
C -0.21154101876644096 2.8723734368567784 4.100257606703492
C 0.6409351013695854 2.1432321132282195 4.429763045393899
C 1.042268887349204 0.22559444904291048 3.9481441142806792
C -1.817379320315104 0.8171500487559789 2.4652878794058286
C -0.5793406810686117 -1.0067799356603073 3.324954853131763
23
Mode 10 - Frame 3
C -0.5464817364694304 -0.9297470798725788 0.6512243731180704
C 0.4725352267731561 0.030046480295878208 0.1754656208154326
C 1.313188605969351 0.6253802973054653 1.316227204492781
C 2.0480806233979285 -0.3279702694350077 1.885309554853205
C -1.2383936309841574 -0.45375981543364746 1.2662921542148984
C 0.5560849144848912 1.8786053010642676 -0.9459979580045274
C -1.0448698256393425 -1.4016994791592796 -0.08456461816337224
C -0.6958177827154144 0.7464678309260032 -1.5125418401284694
C -0.14507846796771187 -1.60070529769047 1.282717446950087
C -0.9401950688748398 1.6937330525835788 -0.021962402560247445
C -0.19770845430657272 1.1452156826167268 -0.6403634723467981
C 1.1578007585666874 -0.5005712164253084 -0.47605001706516836
C 0.5125460192935353 1.3762175093096274 2.1724952711303978
C 0.17215744369871167 0.8703413392590282 3.5438893177263093
C -1.259873689500365 0.28437800136315844 3.367093831826784
C -0.12410885878100285 1.9935716776260108 1.7987004183672546
C 0.30229751283794737 1.901392929881801 5.433723960049517
C 1.6914029471528527 2.5665829811661656 4.373750938132201
C -0.10275558036222149 2.8534949432485774 4.1453924351846325
C 0.8020861838147544 2.107960099931146 4.437243626539855
C 1.0192763807701564 0.2035683376595192 3.936303000743706
C -1.865328004261181 0.8403480794561773 2.428892265776759
C -0.47418370569653795 -1.0092153114163553 3.327363042014715
23
Mode 10 - Frame 4
C -0.5297765621892574 -0.9356465502985513 0.6438148665539765
C 0.48833100265458584 0.029765329910676003 0.17526747314907512
C 1.313861854804303 0.6700738673432057 1.310501823192684
C 2.0119382483289323 -0.32481231576246605 1.945017357162055
C -1.2355879847465272 -0.4664847627163615 1.2589982206128092
C 0.5536018462116288 1.8765225362154183 -0.9516935617690669
C -1.0237023671413632 -1.414717410767634 -0.09093917262009532
C -0.6797361898497043 0.7241033326383607 -1.5269462289994549
C -0.1355441150971996 -1.6043252721950425 1.2787966309444128
C -0.946861144344383 1.67900511130712 -0.041605148652366745
C -0.1924493554645053 1.1291236925074388 -0.6543511771160379
C 1.184368713506317 -0.49761717259118005 -0.46609817768253015
C 0.43296446290395973 1.379871189286196 2.1682724770476183
C 0.11858581486820291 0.8446165176782212 3.5467741152632972
C -1.334752460925139 0.29807245565575025 3.3542228897156328
C -0.17731530137020451 2.0071762581061634 1.795121265244041
C 0.3907457091634653 1.8918615290586318 5.437673425244018
C 1.8076377035974103 2.5280401085861417 4.348813456016082
C -0.009405737177357987 2.8372951241942683 4.184123070669454
C 0.9403714956726699 2.0776928421216803 4.443662786007798
C 0.9995462871559196 0.18466751716577043 3.926142026002736
C -1.9064732364994808 0.8602545353185381 2.3976608355896953
C -0.3839474819447671 -1.0113051310490027 3.3294295323270284
23
Mode 10 - Frame 5
C -0.516563720301334 -0.940312695569084 0.6379543686593151
C 0.5008245621780033 0.029542955960898388 0.1751107496248465
C 1.3143943563070266 0.7054239369929657 1.3059733725104279
C 1.983351687109547 -0.32231455417884686 1.992242829830039
C -1.2333688782882815 -0.4765494716298275 1.2532291343519253
C 0.551637880559952 1.8748751877845653 -0.9561984601158289
C -1.006960112459535 -1.4250138536040986 -0.09598108231406394
C -0.6670165653622917 0.7064142876262367 -1.538339280604453
C -0.12800298473429972 -1.6071884659555529 1.2756954886823952
C -0.952133630564211 1.66735614816811 -0.05714144261775419
C -0.18828970766270592 1.116395844392235 -0.6654146553169371
C 1.2053824534419393 -0.4952806920818651 -0.4582268392545992
C 0.370019982102085 1.3827610421563195 2.164932487317176
C 0.0762137061104905 0.8242696482327669 3.5490558258935256
C -1.3939773065331102 0.30890398942335456 3.3440427072038523
C -0.21939856859983042 2.017936706804333 1.7922903588723658
C 0.46070319740757915 1.8843227335971307 5.440797227383498
C 1.8995727791030885 2.4975548904875393 4.329089327266687
C 0.06442867469872515 2.8244819895218813 4.214756798537059
C 1.049747305248593 2.053753164204513 4.448739975726433
C 0.983940906272929 0.16971804411344033 3.9181052734117165
C -1.93901677294446 0.8759994087001031 2.372958552208841
C -0.31257576579269364 -1.0129580594122358 3.3310640085259346
23
Mode 10 - Frame 6
C -0.5074206753984122 -0.9435415827452056 0.6338990113138722
C 0.5094698768414851 0.029389077255219245 0.17500229981279838
C 1.314762837606627 0.7298855385825964 1.3028397674707446
C 1.963570309638599 -0.32058614885094416 2.024921993088606
C -1.2318332972100996 -0.4835140660986954 1.2492370321849946
C 0.5502788522529919 1.8737352528029914 -0.9593157673701591
C -0.9953747784617055 -1.4321388037089062 -0.09946999159788468
C -0.6582148178788065 0.6941737920381167 -1.5462230639183976
C -0.12278466046222924 -1.6091697436655388 1.273549554961816
C -0.9557820945863216 1.659295278753651 -0.06789227385871255
C -0.18541130747031787 1.1075884063087416 -0.6730703798636581
C 1.2199235771032555 -0.49366389030729807 -0.4527800170415487
C 0.3264635527400829 1.384760767482521 2.16262127551734
C 0.04689298190222285 0.8101899867525436 3.5506347279135917
C -1.4349598163788702 0.3163992126648615 3.336998207117144
C -0.24851941975402508 2.0253827404780482 1.7903314234448668
C 0.5091124996407478 1.879106025034119 5.4429588413247965
C 1.9631901697168521 2.4764596771855745 4.315440590957237
C 0.11552073717022626 2.815615534700841 4.235954777882698
C 1.1254333648206913 2.037187344979945 4.452253298141995
C 0.973142268148697 0.15937328221044633 3.9125439876234918
C -1.9615363048922596 0.886894573081813 2.3558650239526466
C -0.26318784371565485 -1.0141018556049508 3.3321950361584545
23
Mode 10 - Frame 7
C -0.5027470224159468 -0.9451920939633996 0.6318260330934069
C 0.513889104909415 0.029310419031468707 0.17494686349011726
C 1.314951194302142 0.7423895827428437 1.3012379616505738
C 1.9534586570331498 -0.31970263938539617 2.041626610691334
C -1.2310483537736336 -0.48707415992484343 1.2471963881329438
C 0.5495841573491038 1.8731525518994065 -0.9609092422465437
C -0.98945269983618 -1.4357808665731724 -0.1012534183942104
C -0.6537156259997475 0.687916814267616 -1.5502530197798803
C -0.12011720809197567 -1.6101825139818486 1.272452617383597
C -0.9576470810256756 1.6551748017374972 -0.07338777946179997
C -0.18393995478784506 1.1030863055639837 -0.6769837588572669
C 1.2273565676102134 -0.49283742926330326 -0.4499957633108416
C 0.30419879978801 1.3857829676722988 2.1614398526941887
C 0.03190509858774593 0.8029928820059488 3.5514418157288055
C -1.455908858126258 0.3202305481585457 3.3333972679125576
C -0.26340513390000275 2.0291889317257334 1.789330073839741
C 0.533857897061777 1.8764393985663455 5.444063794166104
C 1.9957094901987702 2.4656764307276067 4.3084637623583575
C 0.14163748194022407 2.8110832663527985 4.246790555289777
C 1.164121830403656 2.028719390239709 4.454049204206135
C 0.9676223250868671 0.15408534719162437 3.909701223513018
C -1.9730476207360574 0.8924638574993876 2.347127320029757
C -0.23794220489796114 -1.014686530244983 3.3327731838897736
23
Mode 10 - Frame 8
C -0.5027470224159468 -0.9451920939633996 0.6318260330934069
C 0.513889104909415 0.029310419031468707 0.17494686349011726
C 1.314951194302142 0.7423895827428437 1.3012379616505738
C 1.9534586570331498 -0.31970263938539617 2.041626610691334
C -1.2310483537736336 -0.4870741599248435 1.2471963881329438
C 0.5495841573491038 1.8731525518994065 -0.9609092422465437
C -0.98945269983618 -1.4357808665731724 -0.1012534183942104
C -0.6537156259997475 0.687916814267616 -1.5502530197798803
C -0.12011720809197565 -1.6101825139818486 1.272452617383597
C -0.9576470810256756 1.6551748017374972 -0.0733877794618
C -0.18393995478784506 1.1030863055639837 -0.6769837588572669
C 1.2273565676102134 -0.4928374292633032 -0.4499957633108416
C 0.3041987997880099 1.3857829676722988 2.1614398526941887
C 0.03190509858774587 0.8029928820059486 3.5514418157288055
C -1.4559088581262583 0.3202305481585457 3.3333972679125576
C -0.2634051339000028 2.0291889317257334 1.789330073839741
C 0.5338578970617771 1.8764393985663455 5.444063794166104
C 1.9957094901987702 2.4656764307276067 4.3084637623583575
C 0.14163748194022407 2.8110832663527985 4.246790555289777
C 1.164121830403656 2.0287193902397087 4.454049204206135
C 0.9676223250868671 0.15408534719162434 3.909701223513018
C -1.9730476207360574 0.8924638574993877 2.3471273200297564
C -0.23794220489796103 -1.014686530244983 3.3327731838897736
23
Mode 10 - Frame 9
C -0.5074206753984122 -0.9435415827452056 0.6338990113138722
C 0.5094698768414851 0.029389077255219245 0.17500229981279838
C 1.314762837606627 0.7298855385825965 1.3028397674707446
C 1.963570309638599 -0.32058614885094416 2.0249219930886064
C -1.2318332972100996 -0.4835140660986954 1.2492370321849946
C 0.5502788522529919 1.8737352528029914 -0.9593157673701591
C -0.9953747784617055 -1.4321388037089062 -0.0994699915978847
C -0.6582148178788065 0.6941737920381167 -1.5462230639183976
C -0.12278466046222924 -1.6091697436655388 1.273549554961816
C -0.9557820945863216 1.6592952787536508 -0.06789227385871255
C -0.18541130747031787 1.1075884063087416 -0.6730703798636581
C 1.2199235771032555 -0.49366389030729807 -0.4527800170415487
C 0.3264635527400828 1.384760767482521 2.16262127551734
C 0.0468929819022228 0.8101899867525435 3.5506347279135917
C -1.4349598163788702 0.3163992126648615 3.336998207117144
C -0.24851941975402514 2.0253827404780482 1.7903314234448668
C 0.5091124996407478 1.879106025034119 5.4429588413247965
C 1.9631901697168521 2.4764596771855745 4.315440590957237
C 0.11552073717022626 2.815615534700841 4.235954777882698
C 1.1254333648206916 2.037187344979945 4.452253298141995
C 0.9731422681486969 0.15937328221044633 3.9125439876234918
C -1.9615363048922596 0.886894573081813 2.3558650239526466
C -0.26318784371565485 -1.0141018556049508 3.3321950361584545
23
Mode 10 - Frame 10
C -0.516563720301334 -0.940312695569084 0.6379543686593151
C 0.5008245621780033 0.029542955960898388 0.1751107496248465
C 1.3143943563070266 0.7054239369929658 1.3059733725104279
C 1.983351687109547 -0.32231455417884686 1.9922428298300392
C -1.2333688782882815 -0.4765494716298275 1.2532291343519253
C 0.551637880559952 1.8748751877845653 -0.9561984601158289
C -1.006960112459535 -1.4250138536040986 -0.09598108231406394
C -0.6670165653622917 0.7064142876262367 -1.538339280604453
C -0.12800298473429972 -1.6071884659555529 1.2756954886823952
C -0.952133630564211 1.66735614816811 -0.0571414426177542
C -0.18828970766270592 1.116395844392235 -0.6654146553169372
C 1.2053824534419393 -0.4952806920818651 -0.4582268392545992
C 0.3700199821020849 1.3827610421563195 2.164932487317176
C 0.0762137061104905 0.8242696482327668 3.5490558258935256
C -1.3939773065331102 0.3089039894233546 3.3440427072038523
C -0.21939856859983048 2.017936706804333 1.7922903588723658
C 0.4607031974075792 1.8843227335971307 5.440797227383498
C 1.8995727791030887 2.4975548904875393 4.329089327266687
C 0.06442867469872526 2.8244819895218813 4.214756798537059
C 1.049747305248593 2.053753164204513 4.448739975726433
C 0.983940906272929 0.1697180441134403 3.9181052734117165
C -1.93901677294446 0.8759994087001032 2.372958552208841
C -0.3125757657926935 -1.0129580594122358 3.3310640085259346
23
Mode 10 - Frame 11
C -0.5297765621892574 -0.9356465502985513 0.6438148665539764
C 0.48833100265458584 0.029765329910676003 0.17526747314907512
C 1.313861854804303 0.6700738673432058 1.310501823192684
C 2.0119382483289323 -0.32481231576246605 1.945017357162055
C -1.2355879847465272 -0.4664847627163615 1.2589982206128092
C 0.5536018462116288 1.8765225362154183 -0.9516935617690669
C -1.0237023671413632 -1.414717410767634 -0.09093917262009533
C -0.6797361898497043 0.7241033326383606 -1.5269462289994549
C -0.1355441150971996 -1.6043252721950425 1.2787966309444128
C -0.946861144344383 1.6790051113071198 -0.04160514865236679
C -0.1924493554645053 1.1291236925074388 -0.654351177116038
C 1.1843687135063172 -0.49761717259118005 -0.4660981776825301
C 0.43296446290395957 1.379871189286196 2.1682724770476183
C 0.1185858148682028 0.8446165176782212 3.5467741152632972
C -1.3347524609251393 0.29807245565575025 3.3542228897156328
C -0.17731530137020463 2.0071762581061634 1.795121265244041
C 0.3907457091634655 1.8918615290586318 5.437673425244018
C 1.8076377035974103 2.5280401085861417 4.348813456016082
C -0.009405737177357765 2.8372951241942683 4.184123070669454
C 0.9403714956726701 2.07769284212168 4.443662786007798
C 0.9995462871559195 0.1846675171657704 3.926142026002736
C -1.9064732364994808 0.8602545353185382 2.3976608355896953
C -0.3839474819447669 -1.0113051310490027 3.3294295323270284
23
Mode 10 - Frame 12
C -0.5464817364694304 -0.9297470798725788 0.6512243731180704
C 0.4725352267731561 0.030046480295878208 0.1754656208154326
C 1.313188605969351 0.6253802973054653 1.316227204492781
C 2.048080623397928 -0.3279702694350077 1.885309554853205
C -1.2383936309841574 -0.45375981543364746 1.2662921542148984
C 0.5560849144848912 1.8786053010642676 -0.9459979580045274
C -1.0448698256393425 -1.4016994791592796 -0.08456461816337225
C -0.6958177827154144 0.7464678309260032 -1.5125418401284694
C -0.14507846796771184 -1.60070529769047 1.282717446950087
C -0.9401950688748398 1.6937330525835788 -0.02196240256024746
C -0.1977084543065727 1.1452156826167268 -0.6403634723467981
C 1.1578007585666874 -0.5005712164253084 -0.47605001706516836
C 0.5125460192935352 1.3762175093096274 2.1724952711303978
C 0.1721574436987116 0.8703413392590281 3.5438893177263093
C -1.259873689500365 0.28437800136315844 3.367093831826784
C -0.1241088587810029 1.9935716776260108 1.7987004183672546
C 0.3022975128379474 1.901392929881801 5.433723960049517
C 1.6914029471528529 2.5665829811661656 4.373750938132201
C -0.10275558036222138 2.8534949432485774 4.145392435184633
C 0.8020861838147544 2.107960099931146 4.437243626539855
C 1.0192763807701564 0.20356833765951918 3.936303000743706
C -1.865328004261181 0.8403480794561773 2.428892265776759
C -0.4741837056965379 -1.0092153114163553 3.327363042014715
23
Mode 10 - Frame 13
C -0.5659491468654897 -0.9228721194575813 0.6598590573599888
C 0.4541275857362748 0.03037411949556244 0.1756965326200811
C 1.312404034006864 0.5732965503539369 1.3228992897744771
C 2.0901992170956625 -0.3316503974674387 1.8157289403742092
C -1.241663196797603 -0.4389307710390117 1.2747921552596053
C 0.558978563381114 1.8810324555130038 -0.9393605740372598
C -1.069537368444376 -1.3865290048572878 -0.07713601756215951
C -0.7145585011831461 0.7725303465972252 -1.4957556549050848
C -0.15618934637449405 -1.5964867526982502 1.2872865782258076
C -0.9324267436409798 1.710896290291202 0.0009283133980248354
C -0.20383715633355365 1.1639685175343875 -0.624062870828088
C 1.1268397357411044 -0.5040137176936239 -0.48764741426726915
C 0.6052865553819116 1.3719596855738916 2.1774163132008835
C 0.23458725535692762 0.900319814830717 3.540527512777723
C -1.17261355387826 0.26841913991144783 3.3820930116054164
C -0.06210461768621152 1.9777175508128781 1.8028713920758397
C 0.19922421903198498 1.9125003681139299 5.429121442380632
C 1.5559485263822865 2.611498999746642 4.4028118859832555
C -0.21154101876644102 2.8723734368567784 4.100257606703492
C 0.6409351013695852 2.1432321132282195 4.429763045393899
C 1.042268887349204 0.22559444904291048 3.9481441142806792
C -1.817379320315104 0.8171500487559789 2.4652878794058286
C -0.5793406810686118 -1.0067799356603073 3.324954853131763
23
Mode 10 - Frame 14
C -0.5873279741281281 -0.9153221378134148 0.669341542144548
C 0.4339125817869154 0.030733928104515182 0.1759501166091197
C 1.3115424284763968 0.5160989361559493 1.3302264768947452
C 2.1364532447701077 -0.3356918606055283 1.739316520462632
C -1.245253786471699 -0.4226457299301496 1.2841267329137454
C 0.5621563265582643 1.883697921265438 -0.9320714953963358
C -1.0966269055678808 -1.3698690103846674 -0.06897803630911072
C -0.7351392859279152 0.8011518226553686 -1.4773213101726166
C -0.1683911516152599 -1.591854007877368 1.292304331809701
C -0.9238956817320826 1.7297447085838145 0.026066565093231582
C -0.21056760785809384 1.184562608388433 -0.6061617870652394
C 1.092838790294517 -0.5077942225717471 -0.5003835073806144
C 0.7071328647235601 1.3672838054075451 2.182820530106815
C 0.3031467675019133 0.9332417411581189 3.536835627425521
C -1.076785740706098 0.2508933501251719 3.398564892921154
C 0.005987539048967774 1.9603067790850401 1.807451894804179
C 0.08603062528543773 1.9246983954048724 5.424067024344824
C 1.407194449455811 2.6608251187846337 4.4347261966982545
C -0.3310076067213023 2.89310552425913 4.050691193811592
C 0.46396132392870537 2.181967325777921 4.421547979861816
C 1.0675189240252707 0.24978320455548123 3.961147853132123
C -1.7647227722330068 0.7916743084760433 2.5052570135157826
C -0.6948225436380764 -1.0041054413876276 3.3223102150881303
23
Mode 10 - Frame 15
C -0.6096838609189732 -0.9074271053667604 0.6792573973846523
C 0.4127737076000161 0.031110180759971937 0.17621528994539642
C 1.310641445674073 0.45628726491655863 1.3378885326166843
C 2.184821183460441 -0.3399180275170502 1.659411884536081
C -1.2490084740081269 -0.40561642654781577 1.29388792134156
C 0.5654793205169013 1.8864852046778648 -0.9244492897952435
C -1.1249544942475385 -1.352447617443395 -0.060447217331321385
C -0.7566606578988129 0.8310813632556123 -1.4580444752536739
C -0.18115060625023022 -1.5870095364068717 1.2975514077922976
C -0.914974731490144 1.7494545411372835 0.052353690299577295
C -0.21760565585228125 1.2060978945871303 -0.5874425843176192
C 1.0572839266975784 -0.5117475048556291 -0.5137016680215959
C 0.8136337748874365 1.3623942272112202 2.188471731637093
C 0.3748396004678931 0.9676682720837964 3.5329750147752264
C -0.9765783852523672 0.23256659311606068 3.415789575519643
C 0.07719165743278815 1.9421002967131555 1.812241736603353
C -0.03233616519184434 1.9374538994293855 5.4187816082640445
C 1.2516419833363697 2.712405550185201 4.468099061757099
C -0.4559340810688861 2.9147851137525573 3.998859486598348
C 0.27889945478068434 2.222472822919656 4.412957467727619
C 1.0939229430324935 0.27507743951080527 3.9747458915113674
C -1.709659703840228 0.7650342707127686 2.5470528251528313
C -0.8155821818671882 -1.0013087168316797 3.3195447112567043
23
Mode 10 - Frame 16
C -0.6320397477098185 -0.8995320729201061 0.6891732526247566
C 0.39163483341311667 0.03148643341542869 0.17648046328167316
C 1.309740462871749 0.3964755936771678 1.3455505883386234
C 2.2331891221507743 -0.3441441944285721 1.5795072486095298
C -1.2527631615445547 -0.38858712316548183 1.3036491097693745
C 0.5688023144755383 1.8892724880902918 -0.9168270841941513
C -1.1532820829271961 -1.3350262245021227 -0.05191639835353202
C -0.7781820298697107 0.8610109038558563 -1.4387676403347311
C -0.1939100608852006 -1.5821650649363754 1.3027984837748943
C -0.9060537812482053 1.7691643736907525 0.07864081550592311
C -0.22464370384646873 1.2276331807858276 -0.568723381569999
C 1.0217290631006402 -0.5157007871395111 -0.5270198286625772
C 0.9201346850513135 1.3575046490148952 2.194122933167371
C 0.4465324334338733 1.002094803009474 3.529114402124932
C -0.8763710297986361 0.21423983610694938 3.4330142581181318
C 0.14839577581660884 1.923893814341271 1.817031578402527
C -0.15070295566912692 1.9502094034538984 5.413496192183266
C 1.0960895172169274 2.763985981585768 4.501471926815943
C -0.5808605554164704 2.9364647032459845 3.9470277793851034
C 0.0938375856326625 2.2629783200613915 4.404366955593422
C 1.120326962039716 0.3003716744661294 3.9883439298906116
C -1.6545966354474488 0.7383942329494938 2.58884863678988
C -0.9363418200963006 -0.9985119922757316 3.316779207425278
23
Mode 10 - Frame 17
C -0.6534185749724569 -0.8919820912759395 0.6986557374093157
C 0.37141982946375723 0.03184624202438144 0.17673404727071176
C 1.308878857341282 0.33927797947918 1.3528777754588914
C 2.2794431498252195 -0.3481856575666617 1.5030948286979522
C -1.2563537512186507 -0.37230208205661974 1.3129836874235146
C 0.5719800776526887 1.891937953842726 -0.9095380055532273
C -1.1803716200507008 -1.3183662300295023 -0.04375841710048321
C -0.7987628146144798 0.8896323799139997 -1.420333295602263
C -0.20611186612596644 -1.5775323201154932 1.3078162373587876
C -0.8975227193393082 1.788012791983365 0.10377906720112992
C -0.23137415537100894 1.2482272716398732 -0.5508222978071504
C 0.9877281176540524 -0.5194812920176344 -0.5397559217759227
C 1.021980994392962 1.3528287688485487 2.1995271500733025
C 0.5150919455788591 1.035016729336876 3.5254225167727298
C -0.7805432166264737 0.19671404632067335 3.449486139433869
C 0.21648793255178828 1.906483042613433 1.8216120811308663
C -0.26389654941567436 1.9624074307448411 5.408441774147457
C 0.9473354402904517 2.81331210062376 4.533386237530942
C -0.700327143371332 2.9571967906483363 3.897461366493204
C -0.08313619180821774 2.301713532611093 4.396151890061339
C 1.145576998715783 0.32456042997870016 4.0013476687420555
C -1.6019400873653513 0.7129184926695582 2.628817770899834
C -1.0518236826657654 -0.9958374980030519 3.3141345693816455
23
Mode 10 - Frame 18
C -0.6728859853685162 -0.8851071308609421 0.7072904216512342
C 0.35301218842687593 0.03217388122406566 0.17696495907536025
C 1.308094285378795 0.2871942325276517 1.3595498607405876
C 2.3215617435229534 -0.3518657855990927 1.4335142142189565
C -1.2596233170320963 -0.35747303766198396 1.3214836884682215
C 0.5748737265489114 1.894365108291462 -0.9029006215859597
C -1.2050391628557344 -1.3031957557275105 -0.03632981649927049
C -0.8175035330822116 0.9156948955852215 -1.4035471103788784
C -0.21722274453274862 -1.5733137751232733 1.3123853686345082
C -0.8897543941054481 1.8051760296909882 0.12666978315940217
C -0.23750285739798985 1.266980106557534 -0.5345216962884403
C 0.9567670948284694 -0.5229237932859498 -0.5513533189780234
C 1.1147215304813383 1.348570945112813 2.204448192143788
C 0.577521757237075 1.0649952049085647 3.5220607118241434
C -0.6932830810043691 0.1807551848689628 3.4644853192125016
C 0.2784921736465795 1.8906289158003002 1.8257830548394514
C -0.36696984322163667 1.97351486897697 5.403839256478572
C 0.8118810195198858 2.8582281192042363 4.562447185381997
C -0.8091125817755513 2.9760752842565372 3.8523265380120626
C -0.24428727425338664 2.3369855459081665 4.388671308915383
C 1.1685695052948306 0.34658654136209144 4.013188782279029
C -1.5539914034192743 0.6897204619693598 2.6652133845289034
C -1.1569806580378392 -0.993402122247004 3.3117263804986936
23
Mode 10 - Frame 19
C -0.6895911596486892 -0.8792076604349696 0.7146999282153281
C 0.33721641254544626 0.032455031609267875 0.17716310674171773
C 1.3074210365438428 0.24250066248991126 1.3652752420406846
C 2.3577041185919496 -0.35502373927163433 1.3738064119101066
C -1.2624289632697265 -0.34474809037926996 1.3287776220703107
C 0.5773567948221738 1.8964478731403114 -0.8972050178214201
C -1.2262066213537137 -1.2901778241191562 -0.02995526204254741
C -0.8335851259479217 0.9380593938728642 -1.3891427215078929
C -0.22675709740326086 -1.569693800618701 1.3163061846401825
C -0.883088318635905 1.819903970967447 0.14631252925152147
C -0.24276195624005725 1.2830720966668219 -0.5205339915192005
C 0.9301991398888398 -0.5258778371200782 -0.5613051583606616
C 1.194303086870914 1.3449172651362444 2.2086709862265677
C 0.6310933860675837 1.0907200264893717 3.5191759142871555
C -0.6184043095795949 0.167060730576371 3.477356261323653
C 0.3316986162357811 1.8770243353201477 1.829362207962665
C -0.4554180395471546 1.9830462698001392 5.399889791284071
C 0.6956462630753284 2.89677099178426 4.587384667498116
C -0.9024624249604148 2.9922751033108463 3.8135959025272417
C -0.382572586111302 2.367252803717632 4.38225214944744
C 1.1882995989090674 0.3654873618558402 4.023349757019998
C -1.5128461711809749 0.6698140061069989 2.696444814715967
C -1.24721688178961 -0.9913123026143565 3.30965989018638
23
Mode 10 - Frame 20
C -0.7028040015366126 -0.8745415151644368 0.7205604261099895
C 0.32472285302202875 0.03267740555904548 0.17731983026594636
C 1.3068885350411192 0.20715059284015128 1.3698036927229407
C 2.386290679811335 -0.3575215008552535 1.3265809392421226
C -1.2646480697279723 -0.3346833814658039 1.3345467083311946
C 0.5793207604738506 1.8980952215711644 -0.8927001194746582
C -1.2429488760355418 -1.2798813812826915 -0.024913352348578797
C -0.8463047504353343 0.9557484388849882 -1.3777496699028948
C -0.23429822776616074 -1.5668306068581905 1.3194073269022
C -0.877815832416077 1.831552934106457 0.1618488232169089
C -0.24692160404185665 1.2957999447820256 -0.5094705133183013
C 0.9091853999532177 -0.5282143176293932 -0.5691764967885925
C 1.2572475676727886 1.3420274122661209 2.21201097595701
C 0.673465494825296 1.111066895934826 3.516894203656927
C -0.5591794639716238 0.15622919680876668 3.4875364438354333
C 0.373781883465407 1.866263886621978 1.8321931143343402
C -0.5253755277912684 1.9905850652616404 5.396765989144591
C 0.6037111875696499 2.927256209882862 4.60710879624751
C -0.976296836836498 3.0050882379832333 3.782962174659637
C -0.4919483956872252 2.3911924816347994 4.377174959728805
C 1.203904979792058 0.3804368349081703 4.031386509611019
C -1.4803026347359953 0.654069132725434 2.7211470980968215
C -1.3185885979416834 -0.9896593742511236 3.308025413987474
23
Mode 10 - Frame 21
C -0.7119470464395344 -0.8713126279883152 0.7246157834554324
C 0.31607753835854685 0.032831284264724626 0.17742828007799447
C 1.306520053741519 0.18268899125052046 1.372937297762624
C 2.406072057282283 -0.3592499061831562 1.2939017759835554
C -1.2661836508061541 -0.327718786996936 1.3385388104981253
C 0.5806797887808107 1.8992351565527383 -0.889582812220328
C -1.2545342100333714 -1.2727564311778838 -0.021424443064758047
C -0.8551064979188194 0.9679889344731082 -1.3698658865889501
C -0.23951655203823125 -1.5648493291482046 1.3215532606227791
C -0.8741673683939664 1.839613803520916 0.17259965445786726
C -0.2498000042342447 1.3046073828655191 -0.5018147887715803
C 0.8946442762919014 -0.5298311194039602 -0.5746233190016431
C 1.3008039970347909 1.3400276869399192 2.2143221877568458
C 0.7027862190335639 1.1251465574150494 3.515315301636861
C -0.5181969541258638 0.14873397356725973 3.494580943922142
C 0.40290273461960174 1.858817852948263 1.834152049761839
C -0.5737848300244371 1.995801773824652 5.394604375203293
C 0.5400937969558863 2.9483514231848273 4.6207575325569605
C -1.0273888993079991 3.0139546928042735 3.7617641953139973
C -0.5676344552593238 2.4077583008593675 4.373661637313242
C 1.21470361791629 0.3907815968111643 4.036947795399243
C -1.4577831027881958 0.6431739683437241 2.738240626353016
C -1.3679765200187224 -0.9885155780584085 3.306894386354954
23
Mode 10 - Frame 22
C -0.7166206994219998 -0.8696621167701212 0.7266887616758977
C 0.31165831029061714 0.03290994248847517 0.1774837164006756
C 1.306331697046004 0.1701849470902732 1.3745391035827947
C 2.416183709887732 -0.3601334156487042 1.277197158380828
C -1.26696859424262 -0.324158693170788 1.3405794545501761
C 0.5813744836846988 1.8998178574563231 -0.8879893373439434
C -1.2604562886588968 -1.2691143683136177 -0.019641016268432336
C -0.8596056897978784 0.9742459122436089 -1.3658359307274675
C -0.2421840044084848 -1.5638365588318948 1.3226501982009982
C -0.8723023819546123 1.8437342805370698 0.17809516006095472
C -0.25127135691671754 1.309109483610277 -0.4979014097779715
C 0.8872112857849433 -0.5306575804479551 -0.5774075727323502
C 1.3230687499868636 1.3390054867501415 2.2155036105799972
C 0.7177741023480407 1.1323436621616443 3.5145082138216472
C -0.49724791237847576 0.14490263807357556 3.498181883126728
C 0.4177884487655794 1.8550116617005776 1.8351533993669649
C -0.5985302274454664 1.9984684002924256 5.393499422361985
C 0.5075744764739683 2.959134669642795 4.62773436115584
C -1.053505644077997 3.018486961152316 3.750928417906919
C -0.6063229208422882 2.4162262555996032 4.371865731249103
C 1.2202235609781198 0.3960695318299863 4.039790559509717
C -1.446271786944398 0.6376046839261494 2.7469783302759057
C -1.393222158836416 -0.9879309034183762 3.306316238623635
23
Mode 10 - Frame 23
C -0.7166206994219998 -0.8696621167701212 0.7266887616758977
C 0.31165831029061714 0.03290994248847517 0.1774837164006756
C 1.306331697046004 0.17018494709027315 1.3745391035827947
C 2.4161837098877323 -0.3601334156487042 1.277197158380828
C -1.26696859424262 -0.32415869317078794 1.3405794545501761
C 0.5813744836846988 1.8998178574563231 -0.8879893373439434
C -1.260456288658897 -1.2691143683136177 -0.01964101626843233
C -0.8596056897978784 0.9742459122436089 -1.3658359307274675
C -0.24218400440848484 -1.5638365588318948 1.3226501982009982
C -0.8723023819546123 1.8437342805370698 0.17809516006095474
C -0.25127135691671754 1.309109483610277 -0.4979014097779715
C 0.8872112857849433 -0.5306575804479551 -0.5774075727323502
C 1.3230687499868639 1.3390054867501415 2.2155036105799972
C 0.7177741023480408 1.1323436621616443 3.5145082138216472
C -0.4972479123784757 0.14490263807357553 3.498181883126728
C 0.41778844876557947 1.8550116617005776 1.8351533993669649
C -0.5985302274454665 1.9984684002924256 5.393499422361985
C 0.5075744764739683 2.959134669642795 4.62773436115584
C -1.053505644077997 3.018486961152316 3.750928417906919
C -0.6063229208422882 2.4162262555996037 4.371865731249103
C 1.2202235609781198 0.3960695318299863 4.039790559509717
C -1.446271786944398 0.6376046839261493 2.746978330275906
C -1.3932221588364162 -0.9879309034183762 3.306316238623635
23
Mode 10 - Frame 24
C -0.7119470464395344 -0.8713126279883152 0.7246157834554324
C 0.31607753835854685 0.032831284264724626 0.17742828007799447
C 1.306520053741519 0.1826889912505204 1.372937297762624
C 2.406072057282283 -0.3592499061831562 1.2939017759835554
C -1.2661836508061541 -0.327718786996936 1.3385388104981253
C 0.5806797887808107 1.8992351565527383 -0.889582812220328
C -1.2545342100333714 -1.2727564311778838 -0.02142444306475804
C -0.8551064979188194 0.9679889344731082 -1.3698658865889501
C -0.23951655203823125 -1.5648493291482046 1.3215532606227791
C -0.8741673683939664 1.8396138035209162 0.1725996544578673
C -0.2498000042342447 1.3046073828655191 -0.5018147887715803
C 0.8946442762919014 -0.5298311194039602 -0.5746233190016431
C 1.3008039970347909 1.3400276869399192 2.2143221877568458
C 0.7027862190335639 1.1251465574150494 3.515315301636861
C -0.5181969541258638 0.14873397356725973 3.494580943922142
C 0.4029027346196018 1.858817852948263 1.834152049761839
C -0.5737848300244371 1.995801773824652 5.394604375203293
C 0.5400937969558862 2.9483514231848273 4.6207575325569605
C -1.0273888993079991 3.0139546928042735 3.7617641953139973
C -0.5676344552593238 2.4077583008593675 4.373661637313242
C 1.21470361791629 0.3907815968111643 4.036947795399243
C -1.4577831027881958 0.6431739683437241 2.738240626353016
C -1.3679765200187224 -0.9885155780584085 3.306894386354954
23
Mode 10 - Frame 25
C -0.7028040015366126 -0.8745415151644368 0.7205604261099895
C 0.32472285302202875 0.03267740555904549 0.17731983026594636
C 1.3068885350411192 0.20715059284015122 1.3698036927229407
C 2.386290679811335 -0.3575215008552535 1.3265809392421226
C -1.2646480697279723 -0.3346833814658039 1.3345467083311946
C 0.5793207604738506 1.8980952215711644 -0.8927001194746582
C -1.2429488760355418 -1.2798813812826915 -0.02491335234857879
C -0.8463047504353343 0.9557484388849882 -1.3777496699028948
C -0.23429822776616077 -1.5668306068581905 1.3194073269022
C -0.877815832416077 1.831552934106457 0.1618488232169089
C -0.24692160404185665 1.2957999447820256 -0.5094705133183013
C 0.9091853999532176 -0.5282143176293932 -0.5691764967885925
C 1.2572475676727888 1.3420274122661209 2.21201097595701
C 0.6734654948252962 1.111066895934826 3.516894203656927
C -0.5591794639716237 0.15622919680876668 3.4875364438354333
C 0.3737818834654071 1.866263886621978 1.8321931143343402
C -0.5253755277912685 1.9905850652616404 5.396765989144591
C 0.6037111875696499 2.9272562098828625 4.60710879624751
C -0.976296836836498 3.0050882379832333 3.782962174659637
C -0.4919483956872253 2.3911924816347994 4.377174959728805
C 1.203904979792058 0.3804368349081703 4.031386509611019
C -1.4803026347359953 0.654069132725434 2.7211470980968215
C -1.3185885979416834 -0.9896593742511236 3.308025413987474
23
Mode 10 - Frame 26
C -0.6895911596486892 -0.8792076604349696 0.7146999282153281
C 0.33721641254544626 0.032455031609267875 0.17716310674171773
C 1.3074210365438428 0.24250066248991126 1.3652752420406846
C 2.3577041185919496 -0.35502373927163433 1.3738064119101066
C -1.2624289632697265 -0.34474809037926996 1.3287776220703107
C 0.5773567948221738 1.8964478731403114 -0.8972050178214201
C -1.2262066213537137 -1.2901778241191562 -0.02995526204254741
C -0.8335851259479217 0.9380593938728642 -1.3891427215078929
C -0.22675709740326086 -1.569693800618701 1.3163061846401825
C -0.883088318635905 1.819903970967447 0.14631252925152147
C -0.24276195624005725 1.2830720966668219 -0.5205339915192005
C 0.9301991398888398 -0.5258778371200782 -0.5613051583606616
C 1.194303086870914 1.3449172651362444 2.2086709862265677
C 0.6310933860675837 1.0907200264893717 3.5191759142871555
C -0.6184043095795949 0.167060730576371 3.477356261323653
C 0.3316986162357811 1.8770243353201477 1.829362207962665
C -0.4554180395471546 1.9830462698001392 5.399889791284071
C 0.6956462630753284 2.89677099178426 4.587384667498116
C -0.9024624249604148 2.9922751033108463 3.8135959025272417
C -0.382572586111302 2.367252803717632 4.38225214944744
C 1.1882995989090674 0.3654873618558402 4.023349757019998
C -1.5128461711809749 0.6698140061069989 2.696444814715967
C -1.24721688178961 -0.9913123026143565 3.30965989018638
23
Mode 10 - Frame 27
C -0.6728859853685162 -0.8851071308609421 0.7072904216512342
C 0.35301218842687593 0.03217388122406567 0.17696495907536025
C 1.308094285378795 0.2871942325276516 1.3595498607405876
C 2.321561743522954 -0.3518657855990927 1.4335142142189563
C -1.2596233170320963 -0.35747303766198396 1.3214836884682215
C 0.5748737265489114 1.894365108291462 -0.9029006215859597
C -1.2050391628557344 -1.3031957557275102 -0.03632981649927047
C -0.8175035330822116 0.9156948955852217 -1.4035471103788784
C -0.21722274453274865 -1.5733137751232733 1.3123853686345082
C -0.8897543941054481 1.8051760296909882 0.1266697831594022
C -0.23750285739798987 1.266980106557534 -0.5345216962884403
C 0.9567670948284693 -0.5229237932859498 -0.5513533189780234
C 1.1147215304813385 1.348570945112813 2.204448192143788
C 0.5775217572370751 1.0649952049085647 3.5220607118241434
C -0.6932830810043689 0.18075518486896278 3.4644853192125016
C 0.27849217364657963 1.8906289158003002 1.8257830548394514
C -0.36696984322163684 1.97351486897697 5.403839256478572
C 0.8118810195198856 2.8582281192042363 4.562447185381997
C -0.8091125817755516 2.9760752842565372 3.8523265380120626
C -0.24428727425338687 2.3369855459081665 4.388671308915383
C 1.1685695052948306 0.3465865413620915 4.013188782279029
C -1.5539914034192743 0.6897204619693598 2.6652133845289034
C -1.1569806580378392 -0.993402122247004 3.3117263804986936
23
Mode 10 - Frame 28
C -0.6534185749724569 -0.8919820912759395 0.6986557374093157
C 0.37141982946375723 0.03184624202438144 0.17673404727071176
C 1.308878857341282 0.33927797947918 1.3528777754588914
C 2.2794431498252195 -0.3481856575666617 1.5030948286979522
C -1.2563537512186507 -0.37230208205661974 1.3129836874235146
C 0.5719800776526887 1.891937953842726 -0.9095380055532273
C -1.1803716200507008 -1.3183662300295023 -0.04375841710048321
C -0.7987628146144798 0.8896323799139997 -1.420333295602263
C -0.20611186612596644 -1.5775323201154932 1.3078162373587876
C -0.8975227193393082 1.788012791983365 0.10377906720112991
C -0.23137415537100894 1.2482272716398732 -0.5508222978071504
C 0.9877281176540524 -0.5194812920176344 -0.5397559217759227
C 1.021980994392962 1.3528287688485487 2.1995271500733025
C 0.5150919455788591 1.035016729336876 3.5254225167727298
C -0.7805432166264737 0.19671404632067335 3.449486139433869
C 0.21648793255178828 1.906483042613433 1.8216120811308663
C -0.26389654941567436 1.9624074307448411 5.408441774147457
C 0.9473354402904518 2.81331210062376 4.533386237530942
C -0.700327143371332 2.9571967906483363 3.897461366493204
C -0.08313619180821769 2.301713532611093 4.396151890061339
C 1.145576998715783 0.32456042997870016 4.0013476687420555
C -1.6019400873653513 0.7129184926695582 2.628817770899834
C -1.0518236826657654 -0.9958374980030519 3.3141345693816455
23
Mode 10 - Frame 29
C -0.6320397477098184 -0.8995320729201061 0.6891732526247566
C 0.39163483341311667 0.03148643341542869 0.17648046328167316
C 1.309740462871749 0.3964755936771678 1.3455505883386234
C 2.2331891221507743 -0.3441441944285721 1.5795072486095298
C -1.2527631615445547 -0.38858712316548183 1.3036491097693745
C 0.5688023144755383 1.8892724880902918 -0.9168270841941514
C -1.1532820829271961 -1.3350262245021227 -0.051916398353532026
C -0.7781820298697107 0.8610109038558563 -1.4387676403347311
C -0.1939100608852006 -1.5821650649363754 1.3027984837748943
C -0.9060537812482055 1.7691643736907525 0.07864081550592311
C -0.22464370384646873 1.2276331807858276 -0.568723381569999
C 1.0217290631006402 -0.5157007871395111 -0.5270198286625772
C 0.9201346850513135 1.3575046490148952 2.194122933167371
C 0.4465324334338733 1.002094803009474 3.529114402124932
C -0.8763710297986361 0.2142398361069494 3.4330142581181318
C 0.1483957758166088 1.923893814341271 1.817031578402527
C -0.15070295566912686 1.9502094034538984 5.413496192183266
C 1.0960895172169276 2.763985981585768 4.501471926815943
C -0.5808605554164704 2.9364647032459845 3.947027779385104
C 0.09383758563266259 2.2629783200613915 4.404366955593422
C 1.120326962039716 0.3003716744661294 3.9883439298906116
C -1.6545966354474488 0.7383942329494938 2.58884863678988
C -0.9363418200963005 -0.9985119922757316 3.316779207425278
23
Mode 10 - Frame 30
C -0.6096838609189734 -0.9074271053667604 0.6792573973846523
C 0.4127737076000159 0.03111018075997194 0.17621528994539642
C 1.310641445674073 0.45628726491655813 1.3378885326166843
C 2.1848211834604414 -0.3399180275170502 1.6594118845360804
C -1.2490084740081269 -0.4056164265478156 1.29388792134156
C 0.5654793205169013 1.8864852046778648 -0.9244492897952435
C -1.1249544942475387 -1.352447617443395 -0.060447217331321315
C -0.7566606578988131 0.8310813632556125 -1.4580444752536739
C -0.18115060625023033 -1.5870095364068717 1.2975514077922976
C -0.914974731490144 1.7494545411372835 0.05235369029957751
C -0.2176056558522813 1.2060978945871306 -0.5874425843176191
C 1.0572839266975782 -0.5117475048556291 -0.513701668021596
C 0.8136337748874374 1.3623942272112202 2.188471731637093
C 0.3748396004678937 0.9676682720837967 3.5329750147752264
C -0.9765783852523664 0.2325665931160605 3.415789575519643
C 0.07719165743278873 1.9421002967131555 1.812241736603353
C -0.032336165191845304 1.9374538994293855 5.4187816082640445
C 1.2516419833363683 2.7124055501852014 4.468099061757099
C -0.4559340810688871 2.9147851137525573 3.9988594865983473
C 0.27889945478068284 2.222472822919656 4.412957467727619
C 1.0939229430324937 0.27507743951080543 3.9747458915113674
C -1.7096597038402275 0.7650342707127684 2.5470528251528317
C -0.8155821818671892 -1.0013087168316797 3.3195447112567043
