23
Mode 8 - Frame 1
C -0.732474757919842 -0.8788202930612034 0.6858039450876926
C 0.3799727380978256 -0.03504675158606199 0.18939784395547835
C 1.251669627548427 0.38371761405576743 1.3647880940323456
C 2.252538560172378 -0.24194145558087055 1.5982243348864893
C -1.3126442619004415 -0.3504000424304453 1.3028955367403157
C 0.6978929561093569 1.83828163693122 -0.9212528179082009
C -1.2337739896270499 -1.3020789874826957 -0.06354921727308445
C -0.6788034646842004 0.8531734617135524 -1.4736144791583157
C -0.27384099081122537 -1.5777802421737361 1.2855533028226223
C -0.8189777166355009 1.7735583167918163 0.016433228125013813
C -0.10286088158096086 1.1916273060339106 -0.6007745085673295
C 1.0174070705008729 -0.6051524490190312 -0.48608693424286636
C 0.8108575235125416 1.3297170168274413 2.2060699659133585
C 0.3467479985074536 0.9565324195261354 3.5469055357464527
C -1.0113316291462167 0.21765014431192573 3.4083033442071065
C 0.10416741850855588 1.9375018742595311 1.8116902279553129
C -0.08226101220696763 1.9300527370983596 5.424229015403242
C 1.2169650263818028 2.6964292161153187 4.492123771555195
C -0.46764116876091355 2.9221250940326366 3.9888849009761578
C 0.23243596242486275 2.212048433367342 4.424108589534871
C 1.0911849432584892 0.2781524097816061 3.9779353865182276
C -1.714832864718922 0.8350283112677358 2.5442036632913747
C -0.698915360561883 -1.0234370015127576 3.3294431846024484
23
Mode 8 - Frame 2
C -0.8498991035056763 -0.8514637357241146 0.6920643772422888
C 0.34860532835939545 -0.09831230853239162 0.2020042570984073
C 1.1952751608530507 0.31431960516541313 1.3905120155357256
C 2.317296362577978 -0.14824692998205574 1.5397109747670237
C -1.3734988605034728 -0.2975968792566116 1.3115094761228117
C 0.8245194804353031 1.7921847964014845 -0.9181960471809959
C -1.3378375508846034 -1.253911708346781 -0.06651564493234528
C -0.6043490044133297 0.8743000294592304 -1.4885039991791567
C -0.3624803607890926 -1.568954312385656 1.274079572613417
C -0.7271762319747908 1.7966086417874976 -0.017917337487020145
C 0.00686899544818706 1.1777891516380543 -0.6135237637536571
C 0.9792730242703495 -0.6944751489158428 -0.4596790968404618
C 0.8082026076446615 1.298467957340086 2.2228990729060536
C 0.31988413435114693 0.9458832571609934 3.56022722610518
C -1.0445659895173385 0.20338561589759424 3.401144297125851
C 0.12996420938124914 1.9331044249328093 1.8111628228816241
C -0.13000390384153432 1.9229750410759168 5.429438344710897
C 1.1838036188446521 2.681151124507247 4.515098486251767
C -0.4788366005439596 2.9291442819533438 3.9793462526090293
C 0.18800314764156403 2.2020796396602345 4.434772353810127
C 1.0885666072129898 0.2810929890962285 3.980985485288393
C -1.7197799336436372 0.9019632763817804 2.541479023475059
C -0.5873474391771399 -1.0445981739699817 3.3389090471648384
23
Mode 8 - Frame 3
C -0.95682489030985 -0.8265530461824513 0.6977650829223987
C 0.32004238470782653 -0.1559214816586383 0.21348356862755552
C 1.1439227543932076 0.2511262642425973 1.4139360383200563
C 2.376264363969704 -0.06292935108548964 1.4864291187931584
C -1.4289126318455057 -0.24951468863469975 1.3193532690037657
C 0.9398247067602177 1.7502093362169904 -0.9154125731624208
C -1.4325971010408751 -1.2100509212661397 -0.06921685318589499
C -0.5365512942721771 0.8935377341056406 -1.5020622918434419
C -0.44319475037691136 -1.56091748252588 1.2636316742318903
C -0.643582442900084 1.8175981063142856 -0.04919672198697699
C 0.10678825306661985 1.1651882251494927 -0.6251331462472456
C 0.9445484288137378 -0.7758117739427047 -0.4356323050277303
C 0.8057850598469225 1.2700127825983756 2.2382235398845833
C 0.2954220877697262 0.9361862044840776 3.57235786405817
C -1.07482896534136 0.19039643621357405 3.394625318986247
C 0.1534545865029949 1.9291001383698707 1.8106825715147774
C -0.1734782466353023 1.916530140640791 5.43418192349913
C 1.1536070733603785 2.6672390012766756 4.536019100569661
C -0.48903108232746345 2.9355359053207426 3.9706604262021195
C 0.14754293764911863 2.1930021259189143 4.444482702884139
C 1.0861823687453533 0.2837706600281583 3.9837628838696095
C -1.7242846999636932 0.9629137868898205 2.53899798553813
C -0.48575447123975696 -1.0638673894244 3.3475285953276503
23
Mode 8 - Frame 4
C -1.0485789483621692 -0.8051769411039347 0.7026569139347805
C 0.2955322448409027 -0.20535647365970183 0.22333407754525106
C 1.0998567547473783 0.19689944352094024 1.4340364201887306
C 2.426865379726873 0.01028249351188204 1.440707439745663
C -1.4764637282141169 -0.20825489301883643 1.3260841039955855
C 1.038769243397839 1.714189785408405 -0.9130240470236773
C -1.513911193047265 -1.1724135531036033 -0.07153478627121815
C -0.47837341952341894 0.9100457956469863 -1.5136967947018358
C -0.5124565534390813 -1.5540210006242692 1.2546662309718934
C -0.5718497991214497 1.835609370053734 -0.07603786617706892
C 0.19252994025061795 1.1543752475217295 -0.6350952703251272
C 0.9147509155795881 -0.8456075232895135 -0.41499751899619763
C 0.8037105385587674 1.2455951202816007 2.251373614107034
C 0.2744309675807223 0.9278650692289906 3.5827672825176173
C -1.100797919356902 0.17925029474105625 3.3890313204145235
C 0.1736119076742374 1.9256640211082146 1.8102704631440056
C -0.21078400319514198 1.9109997088680615 5.438252434612678
C 1.1276951238657467 2.6553008729665546 4.55397128327494
C -0.497779066338935 2.941020619523266 3.96320703404863
C 0.11282363777382462 2.185212623052621 4.45281524790695
C 1.0841364305174614 0.28606839550877966 3.9861461966164407
C -1.728150283774636 1.015216013009656 2.5368689827437723
C -0.398576556945745 -1.0804024906966996 3.3549251134749873
23
Mode 8 - Frame 5
C -1.1211511850409286 -0.7882696588544285 0.7065260737905837
C 0.27614611948350837 -0.24445673816972555 0.23112526934380456
C 1.0650030575522118 0.15400911527513383 1.449934678001754
C 2.4668879026502832 0.06818889489174673 1.4045441943958707
C -1.5140739385225221 -0.1756207434639004 1.3314078113109993
C 1.1170287393085392 1.6857003711870449 -0.9111348588184489
C -1.5782260108947899 -1.1426445374520044 -0.07336813938980914
C -0.43235803246199217 0.9231027325794425 -1.5228990241508875
C -0.5672386968267802 -1.5485662760329155 1.2475750757248583
C -0.5151133613834287 1.8498552543527962 -0.09726768325808927
C 0.26034673383597773 1.1458227977635216 -0.6429747433615236
C 0.8911827788805647 -0.9008119877926498 -0.39867657791213085
C 0.8020697103151461 1.2262821394019476 2.261774574228829
C 0.25782818646296474 0.9212835249356166 3.5910005399469127
C -1.1213378836606178 0.17043433134751074 3.384606785991247
C 0.18955520123423492 1.922946247960495 1.8099445088826267
C -0.24029073294650724 1.9066254521641517 5.4414719771834
C 1.1072002468930005 2.6458584930695315 4.568170437839253
C -0.5046982236995883 2.9453587162316857 3.957311825151011
C 0.08536264802191718 2.1790515697147925 4.459405816677076
C 1.0825182098473738 0.28788577347183114 3.988031261325447
C -1.7312077405147985 1.056584096485924 2.535185062730188
C -0.32962378947579757 -1.0934808145170622 3.3607753382713796
23
Mode 8 - Frame 6
C -1.1713698453630381 -0.7765701287983776 0.7092034616378208
C 0.2627312753387122 -0.27151340600573576 0.23651663155533298
C 1.040884936621732 0.12432979266014921 1.4609359816043919
C 2.4945827564388097 0.10825906544806169 1.3795198900960717
C -1.5400995161064315 -0.15303850890146603 1.3350917193943415
C 1.1711828789902947 1.6659862176617601 -0.9098275751366347
C -1.6227306884267763 -1.1220449231429037 -0.07463678621298123
C -0.40051622630880634 0.9321378941049262 -1.5292667986064776
C -0.6051469380000765 -1.5447917063911336 1.242668126002218
C -0.4758527842668066 1.8597131457082665 -0.1119583283516325
C 0.30727471452193833 1.1399046589685098 -0.6484271945748376
C 0.8748740593828825 -0.9390124674529157 -0.3873827852174681
C 0.8009342871838722 1.2129179098978218 2.2689718483832997
C 0.24633936562028255 0.9167292166713296 3.5966978034888437
C -1.1355511632507516 0.16433384593692135 3.3815450891019867
C 0.20058766875000494 1.9210655986545904 1.8097189544959653
C -0.26070885021026496 1.9035985465370355 5.443699841751875
C 1.0930181669111803 2.6393245388966724 4.577995993073037
C -0.5094861540309621 2.9483605998033453 3.9532324484264394
C 0.0663601454180035 2.1747882335003066 4.4639663697142025
C 1.0813984307434574 0.28914336577958044 3.989335691623301
C -1.7333234446533303 1.0852100535646232 2.5340198208823153
C -0.2819097356404394 -1.1025307753777775 3.364823586820732
23
Mode 8 - Frame 7
C -1.197040132896553 -0.7705896765398055 0.7105720627800352
C 0.25587400546720596 -0.28534397095100184 0.2392725357805664
C 1.0285564695721856 0.10915860449145193 1.4665595212390978
C 2.508739543087241 0.1287417464495048 1.3667282090241015
C -1.5534030183408516 -0.1414951413434956 1.3369748237850174
C 1.1988648666786195 1.65590892794061 -0.909159330548173
C -1.64548015767794 -1.1115150121695259 -0.07528528078691892
C -0.38423964078669387 0.9367564003092586 -1.5325218157689247
C -0.6245245049157737 -1.5428622585046643 1.24015983905301
C -0.4557839433847307 1.8647522069644997 -0.1194677497735745
C 0.33126290436708816 1.1368794822004167 -0.6512143256832835
C 0.8665375263865088 -0.9585394180029184 -0.38160973384659624
C 0.8003538926041472 1.2060865127272413 2.272650881153544
C 0.2404666216529798 0.9144011895612746 3.599610075388124
C -1.1428165696063317 0.16121545899510764 3.3799800405924554
C 0.20622713845145568 1.9201042665895247 1.8096036577930485
C -0.271145985284992 1.9020512822873223 5.444838659945982
C 1.0857687088686614 2.6359845755987217 4.583018525064329
C -0.5119336018025367 2.9498950735215286 3.951147192212801
C 0.056646630509998824 2.172608942659493 4.466297588966647
C 1.0808260329258497 0.2897862096135815 3.9900024776466347
C -1.7344049297671027 1.0998427925588323 2.5334241838603577
C -0.2575197285497083 -1.107156846562702 3.3668929312357845
23
Mode 8 - Frame 8
C -1.1970401328965532 -0.7705896765398055 0.7105720627800352
C 0.25587400546720596 -0.2853439709510019 0.2392725357805664
C 1.0285564695721854 0.10915860449145193 1.4665595212390978
C 2.508739543087241 0.12874174644950487 1.3667282090241013
C -1.5534030183408516 -0.1414951413434956 1.3369748237850174
C 1.1988648666786195 1.65590892794061 -0.909159330548173
C -1.64548015767794 -1.1115150121695259 -0.07528528078691892
C -0.38423964078669387 0.9367564003092586 -1.5325218157689247
C -0.6245245049157738 -1.5428622585046643 1.24015983905301
C -0.45578394338473066 1.8647522069644997 -0.11946774977357452
C 0.3312629043670883 1.1368794822004167 -0.6512143256832835
C 0.8665375263865088 -0.9585394180029185 -0.3816097338465962
C 0.8003538926041472 1.2060865127272413 2.272650881153544
C 0.2404666216529798 0.9144011895612746 3.599610075388124
C -1.1428165696063317 0.16121545899510764 3.3799800405924554
C 0.20622713845145568 1.9201042665895247 1.8096036577930485
C -0.271145985284992 1.9020512822873223 5.444838659945982
C 1.0857687088686614 2.6359845755987217 4.583018525064329
C -0.5119336018025367 2.9498950735215286 3.951147192212801
C 0.0566466305099988 2.172608942659493 4.466297588966647
C 1.0808260329258497 0.2897862096135815 3.9900024776466347
C -1.7344049297671027 1.0998427925588323 2.5334241838603577
C -0.2575197285497083 -1.107156846562702 3.3668929312357845
23
Mode 8 - Frame 9
C -1.1713698453630381 -0.7765701287983776 0.7092034616378208
C 0.2627312753387122 -0.27151340600573576 0.236516631555333
C 1.040884936621732 0.12432979266014915 1.4609359816043919
C 2.4945827564388097 0.10825906544806174 1.3795198900960715
C -1.5400995161064315 -0.15303850890146597 1.3350917193943415
C 1.1711828789902947 1.6659862176617601 -0.9098275751366347
C -1.6227306884267765 -1.1220449231429037 -0.07463678621298123
C -0.4005162263088063 0.9321378941049262 -1.5292667986064776
C -0.6051469380000765 -1.5447917063911336 1.242668126002218
C -0.47585278426680655 1.8597131457082665 -0.1119583283516325
C 0.30727471452193844 1.1399046589685098 -0.6484271945748376
C 0.8748740593828825 -0.9390124674529157 -0.3873827852174681
C 0.8009342871838722 1.2129179098978218 2.2689718483832997
C 0.24633936562028252 0.9167292166713296 3.5966978034888437
C -1.1355511632507516 0.16433384593692135 3.3815450891019867
C 0.20058766875000497 1.9210655986545904 1.8097189544959653
C -0.260708850210265 1.9035985465370355 5.443699841751875
C 1.0930181669111803 2.6393245388966724 4.577995993073037
C -0.5094861540309621 2.9483605998033453 3.9532324484264394
C 0.0663601454180035 2.1747882335003066 4.4639663697142025
C 1.0813984307434574 0.28914336577958044 3.989335691623301
C -1.7333234446533303 1.0852100535646234 2.5340198208823153
C -0.2819097356404393 -1.1025307753777775 3.364823586820732
23
Mode 8 - Frame 10
C -1.1211511850409286 -0.7882696588544285 0.7065260737905837
C 0.2761461194835083 -0.2444567381697256 0.23112526934380456
C 1.0650030575522118 0.15400911527513383 1.449934678001754
C 2.4668879026502832 0.06818889489174673 1.4045441943958707
C -1.5140739385225221 -0.17562074346390036 1.3314078113109995
C 1.1170287393085392 1.6857003711870449 -0.9111348588184489
C -1.5782260108947899 -1.1426445374520042 -0.07336813938980914
C -0.4323580324619921 0.9231027325794425 -1.5228990241508875
C -0.5672386968267803 -1.5485662760329155 1.2475750757248583
C -0.5151133613834287 1.8498552543527962 -0.09726768325808927
C 0.26034673383597784 1.1458227977635216 -0.6429747433615236
C 0.8911827788805647 -0.9008119877926499 -0.39867657791213085
C 0.8020697103151461 1.2262821394019476 2.261774574228829
C 0.25782818646296474 0.9212835249356165 3.5910005399469127
C -1.1213378836606178 0.17043433134751074 3.384606785991247
C 0.18955520123423492 1.922946247960495 1.8099445088826267
C -0.24029073294650727 1.9066254521641517 5.4414719771834
C 1.1072002468930005 2.6458584930695315 4.568170437839253
C -0.5046982236995883 2.9453587162316857 3.957311825151011
C 0.08536264802191715 2.1790515697147925 4.459405816677076
C 1.0825182098473738 0.28788577347183114 3.988031261325447
C -1.7312077405147985 1.056584096485924 2.535185062730188
C -0.3296237894757975 -1.0934808145170622 3.3607753382713796
23
Mode 8 - Frame 11
C -1.0485789483621695 -0.8051769411039346 0.7026569139347806
C 0.2955322448409026 -0.20535647365970194 0.2233340775452511
C 1.099856754747378 0.19689944352094013 1.4340364201887308
C 2.426865379726873 0.010282493511882151 1.440707439745663
C -1.4764637282141169 -0.20825489301883635 1.3260841039955855
C 1.038769243397839 1.714189785408405 -0.9130240470236773
C -1.513911193047265 -1.172413553103603 -0.07153478627121815
C -0.47837341952341883 0.9100457956469863 -1.5136967947018358
C -0.5124565534390814 -1.5540210006242692 1.2546662309718934
C -0.5718497991214495 1.835609370053734 -0.07603786617706898
C 0.19252994025061812 1.1543752475217295 -0.6350952703251272
C 0.914750915579588 -0.8456075232895136 -0.4149975189961976
C 0.8037105385587674 1.2455951202816007 2.2513736141070346
C 0.2744309675807223 0.9278650692289905 3.5827672825176173
C -1.100797919356902 0.17925029474105622 3.3890313204145235
C 0.17361190767423745 1.9256640211082146 1.8102704631440056
C -0.21078400319514207 1.9109997088680615 5.438252434612678
C 1.1276951238657464 2.6553008729665546 4.55397128327494
C -0.49777906633893504 2.941020619523266 3.9632070340486294
C 0.11282363777382454 2.185212623052621 4.45281524790695
C 1.0841364305174614 0.28606839550877966 3.9861461966164407
C -1.728150283774636 1.0152160130096561 2.5368689827437723
C -0.39857655694574484 -1.0804024906966996 3.3549251134749873
23
Mode 8 - Frame 12
C -0.9568248903098501 -0.8265530461824513 0.6977650829223987
C 0.32004238470782653 -0.15592148165863834 0.21348356862755552
C 1.1439227543932076 0.2511262642425972 1.4139360383200563
C 2.376264363969704 -0.06292935108548958 1.4864291187931584
C -1.4289126318455057 -0.24951468863469972 1.3193532690037657
C 0.9398247067602178 1.7502093362169904 -0.9154125731624208
C -1.4325971010408751 -1.2100509212661397 -0.06921685318589499
C -0.5365512942721771 0.8935377341056406 -1.5020622918434419
C -0.4431947503769115 -1.56091748252588 1.2636316742318903
C -0.6435824429000839 1.8175981063142856 -0.049196721986977006
C 0.1067882530666199 1.1651882251494927 -0.6251331462472456
C 0.9445484288137378 -0.7758117739427048 -0.4356323050277303
C 0.8057850598469225 1.2700127825983756 2.2382235398845833
C 0.29542208776972617 0.9361862044840776 3.57235786405817
C -1.07482896534136 0.19039643621357402 3.394625318986247
C 0.15345458650299493 1.9291001383698707 1.8106825715147774
C -0.17347824663530234 1.916530140640791 5.43418192349913
C 1.1536070733603785 2.6672390012766756 4.536019100569661
C -0.4890310823274635 2.9355359053207426 3.9706604262021195
C 0.1475429376491186 2.1930021259189143 4.444482702884139
C 1.0861823687453533 0.2837706600281583 3.9837628838696095
C -1.7242846999636932 0.9629137868898205 2.53899798553813
C -0.4857544712397569 -1.0638673894244 3.3475285953276503
23
Mode 8 - Frame 13
C -0.8498991035056762 -0.8514637357241146 0.6920643772422888
C 0.3486053283593955 -0.09831230853239159 0.2020042570984073
C 1.1952751608530507 0.31431960516541313 1.3905120155357256
C 2.317296362577978 -0.1482469299820558 1.539710974767024
C -1.3734988605034728 -0.2975968792566116 1.3115094761228117
C 0.8245194804353029 1.7921847964014845 -0.9181960471809959
C -1.3378375508846034 -1.2539117083467812 -0.06651564493234528
C -0.6043490044133298 0.8743000294592304 -1.4885039991791567
C -0.36248036078909257 -1.568954312385656 1.274079572613417
C -0.7271762319747908 1.7966086417874976 -0.01791733748702013
C 0.006868995448187004 1.1777891516380543 -0.6135237637536571
C 0.9792730242703495 -0.6944751489158427 -0.4596790968404618
C 0.8082026076446615 1.298467957340086 2.2228990729060536
C 0.31988413435114693 0.9458832571609934 3.56022722610518
C -1.0445659895173385 0.20338561589759424 3.401144297125851
C 0.1299642093812491 1.9331044249328093 1.8111628228816241
C -0.1300039038415343 1.9229750410759168 5.429438344710897
C 1.1838036188446521 2.681151124507247 4.515098486251767
C -0.4788366005439596 2.9291442819533438 3.9793462526090293
C 0.18800314764156406 2.2020796396602345 4.434772353810127
C 1.0885666072129898 0.2810929890962285 3.980985485288393
C -1.7197799336436372 0.9019632763817803 2.541479023475059
C -0.5873474391771399 -1.0445981739699817 3.3389090471648384
23
Mode 8 - Frame 14
C -0.732474757919842 -0.8788202930612034 0.6858039450876926
C 0.3799727380978256 -0.03504675158606199 0.18939784395547835
C 1.251669627548427 0.38371761405576743 1.3647880940323456
C 2.252538560172378 -0.24194145558087055 1.5982243348864893
C -1.3126442619004415 -0.3504000424304453 1.3028955367403157
C 0.6978929561093569 1.83828163693122 -0.9212528179082009
C -1.2337739896270499 -1.3020789874826957 -0.06354921727308445
C -0.6788034646842004 0.8531734617135524 -1.4736144791583157
C -0.27384099081122537 -1.5777802421737361 1.2855533028226223
C -0.8189777166355009 1.7735583167918163 0.016433228125013813
C -0.10286088158096086 1.1916273060339106 -0.6007745085673295
C 1.0174070705008729 -0.6051524490190312 -0.48608693424286636
C 0.8108575235125416 1.3297170168274413 2.2060699659133585
C 0.3467479985074536 0.9565324195261354 3.5469055357464527
C -1.0113316291462167 0.21765014431192573 3.4083033442071065
C 0.10416741850855588 1.9375018742595311 1.8116902279553129
C -0.08226101220696763 1.9300527370983596 5.424229015403242
C 1.2169650263818028 2.6964292161153187 4.492123771555195
C -0.46764116876091355 2.9221250940326366 3.9888849009761578
C 0.23243596242486275 2.212048433367342 4.424108589534871
C 1.0911849432584892 0.2781524097816061 3.9779353865182276
C -1.714832864718922 0.8350283112677358 2.5442036632913747
C -0.698915360561883 -1.0234370015127576 3.3294431846024484
23
Mode 8 - Frame 15
C -0.6096838609189736 -0.9074271053667603 0.6792573973846523
C 0.4127737076000159 0.031110180759971757 0.17621528994539645
C 1.3106414456740727 0.45628726491655824 1.3378885326166843
C 2.184821183460441 -0.3399180275170499 1.6594118845360806
C -1.249008474008127 -0.40561642654781555 1.29388792134156
C 0.5654793205169016 1.8864852046778646 -0.9244492897952435
C -1.1249544942475387 -1.3524476174433948 -0.06044721733132137
C -0.7566606578988128 0.8310813632556125 -1.4580444752536739
C -0.1811506062502305 -1.5870095364068717 1.2975514077922976
C -0.9149747314901437 1.7494545411372835 0.05235369029957727
C -0.21760565585228098 1.2060978945871303 -0.5874425843176192
C 1.0572839266975784 -0.5117475048556294 -0.5137016680215958
C 0.8136337748874368 1.3623942272112202 2.188471731637093
C 0.3748396004678933 0.9676682720837965 3.5329750147752264
C -0.9765783852523671 0.2325665931160606 3.415789575519643
C 0.07719165743278841 1.9421002967131555 1.812241736603353
C -0.0323361651918448 1.9374538994293855 5.4187816082640445
C 1.2516419833363692 2.712405550185201 4.468099061757099
C -0.4559340810688865 2.9147851137525573 3.998859486598348
C 0.27889945478068373 2.222472822919656 4.412957467727619
C 1.0939229430324935 0.2750774395108053 3.9747458915113674
C -1.7096597038402277 0.7650342707127687 2.5470528251528313
C -0.8155821818671882 -1.0013087168316797 3.3195447112567043
23
Mode 8 - Frame 16
C -0.4868929639181048 -0.9360339176723174 0.672710849681612
C 0.4455746771022064 0.09726711310600578 0.16303273593531453
C 1.369613263799719 0.5288569157773494 1.3109889712010232
C 2.117103806748504 -0.4378945994532297 1.7205994341856723
C -1.1853726861158123 -0.46083281066518605 1.2848803059428042
C 0.43306568492444586 1.9346887724245097 -0.9276457616822862
C -1.0161349988680273 -1.4028162474040944 -0.057345217389558285
C -0.8345178511134255 0.8089892647976725 -1.442474471349032
C -0.0884602216892352 -1.5962388306400073 1.309549512761973
C -1.010971746344787 1.725350765482751 0.08827415247414087
C -0.33235043012360155 1.22056848314035 -0.5741106600679089
C 1.097160782894284 -0.4183425606922272 -0.5413164018003254
C 0.8164100262623321 1.395071437594999 2.1708734973608275
C 0.402931202428333 0.9788041246414574 3.519044493804
C -0.9418251413585174 0.2474830419201955 3.423275806832179
C 0.050215896357020846 1.94669871916678 1.812793245251393
C 0.017588681823278246 1.9448550617604115 5.413334201124847
C 1.2863189402909356 2.728381884255083 4.444074351959002
C -0.44422699337685934 2.907445133472478 4.008834072220538
C 0.3253629471365049 2.2328972124719706 4.401806345920367
C 1.0966609428064977 0.27200246924000454 3.971556396504507
C -1.7044865429615335 0.6950402301578014 2.549901987014288
C -0.932249003172494 -0.9791804321506017 3.30964623791096
23
Mode 8 - Frame 17
C -0.3694686183322703 -0.9633904750094062 0.6664504175270158
C 0.4769420868406366 0.1605326700523355 0.15042632279238555
C 1.426007730495095 0.5982549246677038 1.285265049697643
C 2.052346004342904 -0.5315891250520447 1.779112794305138
C -1.124518087512781 -0.5136359738390198 1.2762663665603082
C 0.30643916059849957 1.9807856129542452 -0.9307025324094912
C -0.9120714376104735 -1.450983526540009 -0.054378789730297444
C -0.9089723113842962 0.7878626970519945 -1.427584951328191
C 0.00017914828863213605 -1.6050647604280874 1.3210232429711781
C -1.1027732310054972 1.7023004404870694 0.1226247180861749
C -0.44208030715274965 1.2344066375362064 -0.5613614048815813
C 1.1352948291248075 -0.32901986079541545 -0.56772423920273
C 0.8190649421302122 1.4263204970823544 2.1540443903681323
C 0.42979506658463973 0.9894532870065995 3.5057228034452725
C -0.9085907809873954 0.261747570334527 3.4304348539134346
C 0.024419105484327554 1.9510961684935018 1.8133206503250818
C 0.06533157345784502 1.9519327577828542 5.408124871817192
C 1.3194803478280863 2.743659975863155 4.42109963726243
C -0.4330315615938133 2.900425945551771 4.018372720587666
C 0.3697957619198037 2.242866006179078 4.391142581645111
C 1.0992792788519972 0.26906188992538216 3.9685062977343417
C -1.6995394740368182 0.6281052650437566 2.5526266268306035
C -1.0438169245572373 -0.9580192596933775 3.30018037534857
23
Mode 8 - Frame 18
C -0.26254283152809665 -0.9883011645510695 0.6607497118469059
C 0.5055050304922055 0.21814184317858212 0.13894701126323733
C 1.477360136954938 0.6614482655905196 1.2618410269133122
C 1.993378002951178 -0.6169067039486107 1.8323946502790032
C -1.069104316170748 -0.5617181644609317 1.2684225736793542
C 0.19113393427358494 2.0227610731387395 -0.9334860064280663
C -0.8173118874542019 -1.4948443136206502 -0.05167758147674774
C -0.9767700215254488 0.7686249924055842 -1.4140266586639059
C 0.08089353787645084 -1.6131015902878634 1.331471141352705
C -1.186367020080204 1.6813109759602813 0.15390410258613169
C -0.5419995647711824 1.247007564024768 -0.5497520223879928
C 1.170019424581419 -0.2476832357685536 -0.5917710310154615
C 0.8214824899279511 1.4547756718240648 2.1387199233896026
C 0.45425711316606043 0.9991503396835153 3.4935921654922826
C -0.8783278051633738 0.2747367500185472 3.4369538320530384
C 0.0009287283625818016 1.9551004550564404 1.8138009016919285
C 0.10880591625161298 1.95837765821798 5.403381293028959
C 1.34967689331236 2.7575720990937262 4.4001790229445366
C -0.42283707981030944 2.894034322184372 4.027058546994576
C 0.41025597191224905 2.251943519920398 4.381432232571099
C 1.1016635173196336 0.2663842189934523 3.965728899153125
C -1.6950347077167622 0.5671547545357166 2.5551076647675326
C -1.14540989249462 -0.9387500442389595 3.291560827185758
23
Mode 8 - Frame 19
C -0.17078877347577737 -1.0096772696295861 0.6558578808345241
C 0.5300151703591294 0.26757683517964564 0.1290965023455418
C 1.5214261366007675 0.7156750863121767 1.241740645044638
C 1.9427769871940093 -0.6901185485459824 1.8781163293264984
C -1.0215532198021369 -0.6029779600767949 1.2616917386875344
C 0.09218939763596373 2.0587806239473245 -0.9358745325668097
C -0.7359977954478121 -1.5324816817831868 -0.049359648391424586
C -1.034947896274207 0.7521169308642386 -1.4023921558055121
C 0.15015534093862073 -1.6199980721894742 1.3404365846127018
C -1.2580996638588382 1.663299712220833 0.18074524677622364
C -0.6277412519551805 1.2578205416525312 -0.5397898983101111
C 1.1998169378155688 -0.17788748642174484 -0.6124058170469941
C 0.8235570112161062 1.4791933341408396 2.1255698491671517
C 0.4752482333550644 1.0074714749386025 3.4831827470328354
C -0.852358851147832 0.285882891491065 3.442547830624762
C -0.01922859280866071 1.9585365723180965 1.8142130100627003
C 0.14611167281145265 1.9639080899907095 5.399310781915411
C 1.3755888428069918 2.7695102274038472 4.382226840239257
C -0.4140890957988379 2.8885496079818487 4.034511939148066
C 0.44497527178754304 2.2597330227866914 4.3730996875482875
C 1.1037094555475255 0.264086483512831 3.963345586406294
C -1.6911691239058195 0.5148525284158811 2.5572366675618903
C -1.232587806788632 -0.9222149429666598 3.284164309038421
23
Mode 8 - Frame 20
C -0.09821653679701803 -1.0265845518790924 0.6519887209787208
C 0.5494012957165236 0.30667709968966944 0.1213053105469883
C 1.556279833795934 0.758565414557983 1.2258423872316146
C 1.9027544642705987 -0.7480249499258471 1.9142795746762908
C -0.9839430094937317 -0.635612109631731 1.2563680313721206
C 0.01392990172526365 2.087270038168685 -0.9377637207720382
C -0.6716829776002871 -1.5622506974347856 -0.04752629527283359
C -1.0809632833356337 0.7390599939317823 -1.3931899263564602
C 0.20493748432631972 -1.6254527967808279 1.347527739859737
C -1.314836101596859 1.6490538279217708 0.20197506385724398
C -0.6955580455405402 1.2663729914107391 -0.5319104252737148
C 1.223385074514592 -0.12268302191860853 -0.6287267581310609
C 0.8251978394597276 1.4985063150204927 2.115168889045357
C 0.49185101447282187 1.0140530192319763 3.47494948960354
C -0.8318188868441161 0.2946988548846105 3.4469723650480386
C -0.035171886368658214 1.961254345465816 1.8145389643240792
C 0.1756184025628179 1.9682823466946193 5.396091239344689
C 1.396083719779738 2.7789526073008703 4.368027685674944
C -0.40716993843818455 2.884211511273429 4.040407148045685
C 0.4724362615394505 2.26589407612452 4.366509118778162
C 1.1053276762176132 0.2622691055497795 3.961460521697288
C -1.6881116671656569 0.47348444493961306 2.5589205875754746
C -1.3015405742585795 -0.9091366191462972 3.278314084242029
23
Mode 8 - Frame 21
C -0.04799787647490861 -1.038284081935143 0.6493113331314838
C 0.5628161398613198 0.3337337675256797 0.11591394833545986
C 1.5803979547264138 0.7882447371729677 1.2148410836289767
C 1.8750596104820723 -0.788095120482162 1.93930387897609
C -0.9579174319098221 -0.6581943441941653 1.2526841232887784
C -0.04022423795649199 2.1069841916939698 -0.9390710044538524
C -0.6271783000683006 -1.5828503117438864 -0.0462576484496615
C -1.1128050894888197 0.7300248324062987 -1.38682215190087
C 0.24284572549961594 -1.6292273664226098 1.3524346895823771
C -1.3540966787134814 1.6391959365663005 0.21666570895078724
C -0.742486026226501 1.272291130205751 -0.5264579740604008
C 1.2396937940122743 -0.08448254225834267 -0.6400205508257237
C 0.8263332625910015 1.5118705445246186 2.1079716148908862
C 0.5033398353155041 1.0186073274962635 3.469252226061609
C -0.8176056072539823 0.3007993402951999 3.450034061937299
C -0.04620435388442827 1.9631349947717207 1.8147645187107406
C 0.19603651982657566 1.9713092523217355 5.393863374776214
C 1.4102657997615582 2.7854865614737294 4.3582021304411604
C -0.40238200810681074 2.8812096277017694 4.044486524770256
C 0.4914387641433642 2.270157412339006 4.361948565741035
C 1.1064474553215295 0.2610115132420302 3.960156091399434
C -1.685995963027125 0.4448584878609138 2.5600858294233473
C -1.3492546280939377 -0.9000866582855819 3.2742658356926766
23
Mode 8 - Frame 22
C -0.02232758894139364 -1.0442645341937153 0.6479427319892694
C 0.5696734097328261 0.34756433247094576 0.11315804411022645
C 1.5927264217759602 0.8034159253416651 1.2092175439942707
C 1.860902823833641 -0.8085778014836051 1.95209556004806
C -0.9446139296754021 -0.6697377117521358 1.2508010188981025
C -0.06790622564481685 2.11706148141512 -0.9397392490423141
C -0.6044288308171368 -1.5933802227172642 -0.04560915387572381
C -1.129081675010932 0.7254063262019663 -1.383567134738423
C 0.2622232924153133 -1.631156814309079 1.3549429765315852
C -1.3741655195955573 1.6341568753100673 0.22417513037272924
C -0.7664742160716508 1.275316306973844 -0.5236708429519549
C 1.248030327008648 -0.06495559170833987 -0.6457936021965955
C 0.8269136571707264 1.518701941695199 2.104292582120642
C 0.5092125792828068 1.0209353546063182 3.4663399541623288
C -0.8103402008984022 0.3039177272370136 3.45159911044683
C -0.05184382358587898 1.9640963268367864 1.8148798154136574
C 0.20647365490130268 1.9728565165714487 5.392724556582107
C 1.417515257804077 2.78882652477168 4.353179598449868
C -0.3999345603352363 2.879675153983586 4.046571780983895
C 0.5011522790513688 2.2723367031798194 4.359617346488591
C 1.1070198531391373 0.26036866940802916 3.9594893053761
C -1.6849144779133527 0.4302257488667047 2.560681466445305
C -1.373644635184669 -0.8954605871006573 3.272196491277624
23
Mode 8 - Frame 23
C -0.022327588941393528 -1.0442645341937153 0.6479427319892694
C 0.5696734097328261 0.3475643324709458 0.11315804411022644
C 1.5927264217759605 0.8034159253416651 1.2092175439942707
C 1.860902823833641 -0.8085778014836053 1.9520955600480603
C -0.9446139296754021 -0.6697377117521358 1.2508010188981025
C -0.06790622564481696 2.11706148141512 -0.9397392490423141
C -0.6044288308171368 -1.5933802227172642 -0.04560915387572381
C -1.129081675010932 0.7254063262019663 -1.383567134738423
C 0.2622232924153133 -1.631156814309079 1.3549429765315852
C -1.3741655195955573 1.6341568753100673 0.22417513037272926
C -0.7664742160716509 1.275316306973844 -0.5236708429519549
C 1.2480303270086481 -0.06495559170833981 -0.6457936021965955
C 0.8269136571707264 1.518701941695199 2.104292582120642
C 0.5092125792828068 1.0209353546063182 3.4663399541623288
C -0.8103402008984022 0.3039177272370136 3.45159911044683
C -0.05184382358587901 1.9640963268367864 1.8148798154136574
C 0.2064736549013027 1.9728565165714487 5.392724556582107
C 1.417515257804077 2.78882652477168 4.353179598449868
C -0.3999345603352362 2.879675153983586 4.046571780983895
C 0.5011522790513689 2.2723367031798194 4.359617346488591
C 1.1070198531391373 0.26036866940802916 3.9594893053761
C -1.6849144779133527 0.43022574886670467 2.560681466445305
C -1.373644635184669 -0.8954605871006573 3.272196491277624
23
Mode 8 - Frame 24
C -0.04799787647490861 -1.038284081935143 0.6493113331314838
C 0.5628161398613198 0.3337337675256797 0.11591394833545984
C 1.5803979547264138 0.7882447371729677 1.2148410836289767
C 1.875059610482072 -0.7880951204821621 1.9393038789760901
C -0.9579174319098221 -0.6581943441941654 1.2526841232887784
C -0.04022423795649199 2.1069841916939698 -0.9390710044538524
C -0.6271783000683004 -1.5828503117438864 -0.0462576484496615
C -1.1128050894888197 0.7300248324062987 -1.38682215190087
C 0.242845725499616 -1.6292273664226098 1.3524346895823771
C -1.3540966787134814 1.6391959365663005 0.21666570895078724
C -0.7424860262265011 1.272291130205751 -0.5264579740604008
C 1.2396937940122743 -0.08448254225834262 -0.6400205508257237
C 0.8263332625910015 1.5118705445246186 2.1079716148908862
C 0.5033398353155041 1.0186073274962635 3.469252226061609
C -0.8176056072539823 0.3007993402951999 3.450034061937299
C -0.046204353884428284 1.9631349947717207 1.8147645187107406
C 0.1960365198265757 1.9713092523217355 5.393863374776214
C 1.4102657997615582 2.7854865614737294 4.3582021304411604
C -0.40238200810681074 2.8812096277017694 4.044486524770256
C 0.4914387641433642 2.270157412339006 4.361948565741035
C 1.1064474553215295 0.2610115132420302 3.960156091399434
C -1.685995963027125 0.44485848786091375 2.5600858294233473
C -1.349254628093938 -0.9000866582855818 3.2742658356926766
23
Mode 8 - Frame 25
C -0.09821653679701792 -1.0265845518790924 0.6519887209787208
C 0.5494012957165237 0.30667709968966944 0.12130531054698829
C 1.556279833795934 0.7585654145579831 1.2258423872316146
C 1.9027544642705987 -0.7480249499258471 1.9142795746762908
C -0.9839430094937316 -0.6356121096317311 1.2563680313721206
C 0.013929901725263538 2.087270038168685 -0.9377637207720382
C -0.6716829776002871 -1.5622506974347856 -0.04752629527283359
C -1.0809632833356337 0.7390599939317823 -1.3931899263564602
C 0.20493748432631972 -1.6254527967808279 1.347527739859737
C -1.3148361015968593 1.6490538279217708 0.201975063857244
C -0.6955580455405403 1.2663729914107391 -0.5319104252737148
C 1.2233850745145922 -0.12268302191860847 -0.6287267581310609
C 0.8251978394597276 1.4985063150204927 2.115168889045357
C 0.4918510144728219 1.0140530192319763 3.47494948960354
C -0.8318188868441161 0.2946988548846105 3.4469723650480386
C -0.03517188636865823 1.961254345465816 1.8145389643240792
C 0.17561840256281794 1.9682823466946193 5.396091239344689
C 1.396083719779738 2.7789526073008703 4.368027685674944
C -0.40716993843818455 2.884211511273429 4.040407148045685
C 0.4724362615394505 2.26589407612452 4.366509118778162
C 1.1053276762176132 0.2622691055497795 3.961460521697288
C -1.6881116671656569 0.47348444493961306 2.5589205875754746
C -1.3015405742585795 -0.9091366191462972 3.278314084242029
23
Mode 8 - Frame 26
C -0.17078877347577737 -1.0096772696295861 0.6558578808345241
C 0.5300151703591294 0.26757683517964564 0.1290965023455418
C 1.5214261366007675 0.7156750863121767 1.241740645044638
C 1.9427769871940093 -0.6901185485459824 1.8781163293264984
C -1.0215532198021369 -0.6029779600767949 1.2616917386875344
C 0.09218939763596373 2.0587806239473245 -0.9358745325668097
C -0.7359977954478121 -1.5324816817831868 -0.049359648391424586
C -1.034947896274207 0.7521169308642386 -1.4023921558055121
C 0.15015534093862073 -1.6199980721894742 1.3404365846127018
C -1.2580996638588382 1.663299712220833 0.18074524677622364
C -0.6277412519551805 1.2578205416525312 -0.5397898983101111
C 1.1998169378155688 -0.17788748642174484 -0.6124058170469941
C 0.8235570112161062 1.4791933341408396 2.1255698491671517
C 0.4752482333550644 1.0074714749386025 3.4831827470328354
C -0.852358851147832 0.285882891491065 3.442547830624762
C -0.01922859280866071 1.9585365723180965 1.8142130100627003
C 0.14611167281145265 1.9639080899907095 5.399310781915411
C 1.3755888428069918 2.7695102274038472 4.382226840239257
C -0.4140890957988379 2.8885496079818487 4.034511939148066
C 0.44497527178754304 2.2597330227866914 4.3730996875482875
C 1.1037094555475255 0.264086483512831 3.963345586406294
C -1.6911691239058195 0.5148525284158811 2.5572366675618903
C -1.232587806788632 -0.9222149429666598 3.284164309038421
23
Mode 8 - Frame 27
C -0.2625428315280965 -0.9883011645510695 0.6607497118469059
C 0.5055050304922055 0.21814184317858223 0.1389470112632373
C 1.4773601369549383 0.6614482655905197 1.261841026913312
C 1.9933780029511778 -0.6169067039486109 1.8323946502790032
C -1.069104316170748 -0.5617181644609317 1.2684225736793542
C 0.19113393427358472 2.0227610731387395 -0.9334860064280663
C -0.8173118874542018 -1.4948443136206504 -0.05167758147674773
C -0.9767700215254489 0.7686249924055842 -1.4140266586639059
C 0.08089353787645101 -1.6131015902878634 1.331471141352705
C -1.1863670200802041 1.6813109759602813 0.15390410258613177
C -0.5419995647711826 1.247007564024768 -0.5497520223879928
C 1.170019424581419 -0.24768323576855344 -0.5917710310154616
C 0.8214824899279511 1.4547756718240648 2.1387199233896026
C 0.4542571131660605 0.9991503396835153 3.4935921654922826
C -0.8783278051633737 0.27473675001854725 3.4369538320530384
C 0.00092872836258176 1.9551004550564404 1.8138009016919285
C 0.10880591625161307 1.95837765821798 5.403381293028959
C 1.34967689331236 2.7575720990937262 4.4001790229445366
C -0.4228370798103094 2.894034322184372 4.027058546994576
C 0.4102559719122491 2.251943519920398 4.381432232571099
C 1.1016635173196336 0.2663842189934523 3.965728899153125
C -1.6950347077167622 0.5671547545357165 2.5551076647675326
C -1.1454098924946203 -0.9387500442389594 3.291560827185758
23
Mode 8 - Frame 28
C -0.3694686183322703 -0.9633904750094062 0.6664504175270158
C 0.4769420868406366 0.16053267005233549 0.15042632279238555
C 1.426007730495095 0.5982549246677038 1.285265049697643
C 2.052346004342904 -0.5315891250520446 1.779112794305138
C -1.124518087512781 -0.5136359738390198 1.2762663665603082
C 0.30643916059849957 1.9807856129542452 -0.9307025324094912
C -0.9120714376104735 -1.450983526540009 -0.054378789730297444
C -0.9089723113842962 0.7878626970519945 -1.427584951328191
C 0.0001791482886321083 -1.6050647604280874 1.3210232429711781
C -1.1027732310054972 1.7023004404870694 0.12262471808617487
C -0.4420803071527496 1.2344066375362064 -0.5613614048815813
C 1.1352948291248075 -0.32901986079541545 -0.56772423920273
C 0.8190649421302122 1.4263204970823544 2.1540443903681323
C 0.42979506658463973 0.9894532870065995 3.5057228034452725
C -0.9085907809873954 0.261747570334527 3.4304348539134346
C 0.02441910548432756 1.9510961684935018 1.8133206503250818
C 0.06533157345784499 1.9519327577828542 5.408124871817192
C 1.3194803478280863 2.743659975863155 4.42109963726243
C -0.4330315615938133 2.900425945551771 4.018372720587666
C 0.3697957619198037 2.242866006179078 4.391142581645111
C 1.0992792788519972 0.26906188992538216 3.9685062977343417
C -1.6995394740368182 0.6281052650437566 2.5526266268306035
C -1.0438169245572373 -0.9580192596933775 3.30018037534857
23
Mode 8 - Frame 29
C -0.4868929639181049 -0.9360339176723174 0.672710849681612
C 0.4455746771022064 0.09726711310600575 0.16303273593531453
C 1.369613263799719 0.5288569157773494 1.3109889712010232
C 2.117103806748504 -0.43789459945322967 1.720599434185672
C -1.1853726861158123 -0.460832810665186 1.2848803059428042
C 0.43306568492444597 1.9346887724245097 -0.9276457616822862
C -1.0161349988680273 -1.4028162474040944 -0.05734521738955829
C -0.8345178511134255 0.8089892647976725 -1.442474471349032
C -0.08846022168923524 -1.5962388306400073 1.309549512761973
C -1.010971746344787 1.725350765482751 0.08827415247414086
C -0.33235043012360155 1.22056848314035 -0.5741106600679089
C 1.097160782894284 -0.4183425606922272 -0.5413164018003254
C 0.8164100262623321 1.395071437594999 2.1708734973608275
C 0.402931202428333 0.9788041246414574 3.519044493804
C -0.9418251413585174 0.2474830419201955 3.423275806832179
C 0.05021589635702085 1.94669871916678 1.812793245251393
C 0.017588681823278225 1.9448550617604115 5.413334201124847
C 1.2863189402909356 2.728381884255083 4.444074351959002
C -0.44422699337685934 2.907445133472478 4.008834072220538
C 0.3253629471365048 2.2328972124719706 4.401806345920367
C 1.0966609428064977 0.27200246924000454 3.971556396504507
C -1.7044865429615335 0.6950402301578014 2.549901987014288
C -0.932249003172494 -0.9791804321506017 3.30964623791096
23
Mode 8 - Frame 30
C -0.6096838609189726 -0.9074271053667605 0.6792573973846523
C 0.4127737076000162 0.031110180759972298 0.17621528994539634
C 1.3106414456740731 0.45628726491655885 1.337888532616684
C 2.1848211834604405 -0.33991802751705075 1.6594118845360812
C -1.2490084740081264 -0.405616426547816 1.29388792134156
C 0.5654793205169005 1.886485204677865 -0.9244492897952435
C -1.1249544942475378 -1.3524476174433953 -0.06044721733132135
C -0.7566606578988134 0.8310813632556123 -1.4580444752536739
C -0.18115060625022975 -1.5870095364068717 1.2975514077922976
C -0.9149747314901445 1.7494545411372833 0.05235369029957756
C -0.21760565585228192 1.2060978945871303 -0.5874425843176191
C 1.0572839266975786 -0.5117475048556286 -0.513701668021596
C 0.8136337748874368 1.3623942272112204 2.188471731637093
C 0.3748396004678935 0.9676682720837966 3.5329750147752264
C -0.9765783852523667 0.2325665931160607 3.415789575519643
C 0.07719165743278819 1.9421002967131555 1.812241736603353
C -0.03233616519184439 1.9374538994293855 5.4187816082640445
C 1.2516419833363694 2.712405550185201 4.468099061757099
C -0.4559340810688864 2.9147851137525573 3.998859486598348
C 0.2788994547806841 2.222472822919656 4.412957467727619
C 1.0939229430324935 0.2750774395108053 3.9747458915113674
C -1.7096597038402277 0.7650342707127682 2.5470528251528313
C -0.8155821818671892 -1.0013087168316794 3.3195447112567043
