23
Mode 7 - Frame 1
C -0.5637743436738555 -0.9634724374552367 0.7161857612372203
C 0.4196020452567303 -0.001025374089292621 0.1855979877058638
C 1.3016179885628851 0.471855678103986 1.3300675572249443
C 2.283969218028828 -0.18962489634143936 1.6002170854641655
C -1.227544128600972 -0.4441302643874734 1.3026600543980738
C 0.5163292628652449 1.8539177888040173 -0.9352154566567679
C -1.0740530162025717 -1.4237680301262625 -0.021641824682544178
C -0.7860314079105151 0.7619415800594854 -1.446207860472879
C -0.12175535164308798 -1.6109379374068833 1.3469636350766374
C -0.9317468454550689 1.7079924910509523 0.057399101004367785
C -0.24814896577009976 1.1500101807560201 -0.5848386164050764
C 1.0701253402743585 -0.5327767661271442 -0.5053227169747939
C 0.8008161212328956 1.3445097408783049 2.200468996959467
C 0.38366167742443674 0.908432823745049 3.542069503496577
C -1.0156949881158823 0.2692626409515616 3.4076390442869684
C 0.07699253509834843 1.9342004534316644 1.8199611939535838
C 0.028679243536941477 1.869499080802352 5.447239157376028
C 1.3349649739118101 2.6217063712128277 4.496729210067738
C -0.3611891664503857 2.880259145196001 4.045206941656679
C 0.36020569835341404 2.14553396348071 4.448677434966531
C 1.0800159009664385 0.188737531146821 3.969119525753966
C -1.7126526235931523 0.8126631931690836 2.517578591215506
C -0.9717084956508512 -0.9683982344982504 3.3210548779047384
23
Mode 7 - Frame 2
C -0.5198712926306547 -1.0170683195961052 0.7515001783874811
C 0.4261319517918467 -0.031756450988143545 0.19457061655101968
C 1.2929888998268073 0.486743676929588 1.3225883959870268
C 2.3787840077215208 -0.04590029618466046 1.5436093831598534
C -1.2070178780854663 -0.4809608627036397 1.3110488031466534
C 0.46932729858110955 1.8227737252796565 -0.9455110903646432
C -1.0253761770005612 -1.4919713985415786 0.01546758609854796
C -0.8141185152102105 0.6958235371585182 -1.434888562556384
C -0.0649559546723308 -1.633820552461987 1.3942163109224783
C -0.9477859375581946 1.668342531510384 0.062224003050792176
C -0.2773573864814477 1.0963737691580406 -0.582348454385536
C 1.0824055224578943 -0.5528869477715027 -0.49730996629540514
C 0.788558660548984 1.327406892417425 2.211941924217987
C 0.39209818728495716 0.8517862487419221 3.5507665194206064
C -1.0531020077319764 0.3043548954094771 3.3998447303797494
C 0.07680211536541852 1.926645871209228 1.8273432739755435
C 0.08702798611986465 1.8045142138327182 5.474452975037346
C 1.414646349971035 2.5349711815844955 4.524108083514508
C -0.27058505923725484 2.847242127139345 4.089528790529196
C 0.4379584689313727 2.0719577013928543 4.482836268233684
C 1.066716663372062 0.10617109108318959 3.9637390591784616
C -1.7155147383912517 0.8582105031651308 2.4893925227343088
C -1.1210113403449942 -0.9369260981648073 3.32249904302367
23
Mode 7 - Frame 3
C -0.47989348179017133 -1.065872354558234 0.7836572393485937
C 0.43207803895581276 -0.059739954412033225 0.20274102954488057
C 1.2851313120505683 0.5003005844041412 1.3157779241380267
C 2.46512169125711 0.08497431825928636 1.4920628058477359
C -1.1883268181050157 -0.5144985476170794 1.3186875390133033
C 0.4265276390441597 1.794414159126595 -0.9548862223219037
C -0.9810513880920239 -1.5540769082135213 0.04925915569011178
C -0.8396944384320085 0.6356169102970534 -1.4245812891391578
C -0.013234821539326785 -1.654657301491306 1.4372442666518621
C -0.9623910225105115 1.6322375560091165 0.06661752506697306
C -0.3039543698436863 1.047532828356082 -0.5800809302883752
C 1.0935877703599135 -0.5711991383514883 -0.4900136116375625
C 0.7773971026854112 1.311833158374893 2.2223890914382425
C 0.3997804140856841 0.8002042742224773 3.558685961218521
C -1.0871645778446304 0.3363096565786766 3.392747282717
C 0.07662872049006289 1.9197667215398748 1.8340653443491222
C 0.14015994251772007 1.7453394490390455 5.4992336868298155
C 1.4872036530265926 2.4559907252885784 4.549039093949375
C -0.18808159368145078 2.8171770617048946 4.129887955740345
C 0.5087595973411152 2.0049596723674057 4.513941062603033
C 1.0546064707490606 0.030986668948428497 3.958839643992546
C -1.7181209600838983 0.8996855646938404 2.463726486153629
C -1.256965465201948 -0.9082677912091877 3.3238140896679282
23
Mode 7 - Frame 4
C -0.4455881333209546 -1.1077515718260351 0.8112515262498591
C 0.4371804342070712 -0.08375287098159011 0.20975214043362342
C 1.2783886395248787 0.5119338986177477 1.309933791978015
C 2.53920889757092 0.19727909833312424 1.4478301863042735
C -1.1722878376704222 -0.5432775613654076 1.3252424125859295
C 0.3898008347517127 1.7700785394700183 -0.9629311142751424
C -0.9430158554461984 -1.6073702503541274 0.07825603035105477
C -0.8616413870042208 0.583953017972386 -1.4157365175293184
C 0.031147586052479193 -1.672537518576443 1.4741669741283752
C -0.97492378801663 1.6012555252274496 0.07038764905834563
C -0.32677750005739975 1.0056219418280266 -0.5781351457974275
C 1.103183366088719 -0.5869130072671158 -0.48375253871160795
C 0.767819261279912 1.298469185659435 2.2313539072816386
C 0.4063726076520116 0.75594127999099 3.5654817112820543
C -1.1163940006895756 0.3637303480601097 3.3866568938189143
C 0.0764799286603755 1.9138636562739777 1.839833618342922
C 0.18575299128050765 1.6945610075948434 5.5204982567370555
C 1.5494657807663856 2.388216827255486 4.570432636584073
C -0.11728456712331381 2.7913779365203264 4.164520548105634
C 0.5695147345296279 1.947468011764988 4.540632389303276
C 1.0442145966262106 -0.03352981523528831 3.954635408149848
C -1.7203573842770845 0.9352757185469818 2.4417022104313513
C -1.3736290225851917 -0.8836758191631658 3.3249425439888656
23
Mode 7 - Frame 5
C -0.41845455556643496 -1.1408756486461253 0.8330770363416125
C 0.4412161383891332 -0.10274572101596671 0.21529753002836746
C 1.2730555693940437 0.5211351879164383 1.3053114161256414
C 2.5978076602371774 0.28610578624950217 1.412844702255173
C -1.1596019171902445 -0.566040122950793 1.3304269444356347
C 0.3607520232861084 1.7508304496641776 -0.9692941658423285
C -0.9129319143544424 -1.6495222501820237 0.10119090751625151
C -0.8790001739610979 0.5430898201899645 -1.4087408066881388
C 0.06625154392090496 -1.6866797524319772 1.503370733860486
C -0.9848364920850518 1.5767505025788202 0.07336960251542483
C -0.34482929681471913 0.9724728164258962 -0.5765961410318575
C 1.1107729360661849 -0.5993417830432637 -0.47880038644836687
C 0.7602437339614891 1.2878990440061724 2.238444566277859
C 0.4115866574922369 0.7209317712927874 3.5708567627238033
C -1.1395128102301557 0.38541855405696146 3.3818397429052673
C 0.07636224279329615 1.9091946676897065 1.8443959947041648
C 0.2218144973975725 1.6543981510532193 5.537317321015393
C 1.598711579441349 2.334611532044509 4.587353710947859
C -0.061288149345259446 2.770972297154144 4.191912957153086
C 0.6175685894662791 1.901995381029523 4.561743709278417
C 1.0359952157684256 -0.08455868152469359 3.951310096930853
C -1.7221262685020138 0.9634255042206668 2.424282262100739
C -1.465903255223219 -0.8642249692105275 3.3258350871177322
23
Mode 7 - Frame 6
C -0.3996786160758367 -1.1637969039145113 0.8481798901024271
C 0.44400877186378546 -0.11588842583085468 0.21913483819409083
C 1.2693651824136907 0.5275023118051753 1.3021128165862748
C 2.638356932139307 0.3475722295087352 1.3886353872323582
C -1.1508234922632672 -0.5817913992050653 1.3340145456424433
C 0.3406507771000563 1.7375111235961707 -0.9736972811366668
C -0.8921143774012316 -1.6786906630369949 0.11706142299983197
C -0.8910121370159227 0.514813234776259 -1.4038999027485235
C 0.09054284065962145 -1.6964659195764547 1.5235792014127147
C -0.991695901981555 1.5597934751411184 0.07543305976313605
C -0.3573208099752182 0.9495342279969162 -0.5755311778848847
C 1.116024779665499 -0.6079422685386309 -0.475373587664806
C 0.7550016076253707 1.2805846993265197 2.2433511726040125
C 0.415194684608555 0.6967058316522425 3.5745762000034054
C -1.155510603553091 0.4004263958956107 3.37850636258624
C 0.0762808063259356 1.9059638129924865 1.8475530756931529
C 0.24676840000929381 1.62660618896781 5.548955805849039
C 1.6327887713418265 2.2975176482831126 4.599062784894712
C -0.022539652504813046 2.75685196796377 4.210868003163966
C 0.6508209781023581 1.8705291523260417 4.576352356542189
C 1.0303075545601557 -0.11986972359927267 3.949009042392446
C -1.7233503040300089 0.9829046410032969 2.412227976494026
C -1.5297553363688543 -0.8507653368297365 3.3264527106368997
23
Mode 7 - Frame 7
C -0.3900809135018527 -1.1755135687875788 0.8559000203514224
C 0.44543628314764344 -0.12260658616014872 0.22109635615050383
C 1.2674787662033027 0.5307569964171707 1.3004777875083695
C 2.65908451551819 0.37899204959167604 1.3762603044715085
C -1.1463362221823552 -0.5898429837729033 1.3358484208183967
C 0.33037561710836794 1.7307026797283869 -0.9759480228913033
C -0.8814730708450464 -1.6936006893117048 0.1251739591199811
C -0.897152295743406 0.5003590841999592 -1.401425376441868
C 0.10295983003857265 -1.7014683175464214 1.5339091697820428
C -0.9952022285785622 1.551125546382217 0.07648783781818788
C -0.3637061004728527 0.9378087029269925 -0.5749868003562919
C 1.1187093661202294 -0.6123385812673618 -0.47362190991137176
C 0.7523219883469583 1.2768458235810978 2.2458592840191365
C 0.4170390009027479 0.684322250880603 3.576477465863901
C -1.1636882003242397 0.4080979588720931 3.376802437577107
C 0.07623917842269305 1.9043122960359473 1.8491668817213125
C 0.25952409382942937 1.6123997634423781 5.554905053603118
C 1.6502080196612585 2.2785563566878726 4.605048115706784
C -0.0027325718498191764 2.7496340750916817 4.220557259671193
C 0.6678186114918041 1.8544445508406033 4.583819863109098
C 1.027400191088629 -0.13791967947918726 3.9478328116596404
C -1.7239759946349222 0.9928617971462026 2.4060661837351063
C -1.5623946236797537 -0.8438851725423153 3.326768421434894
23
Mode 7 - Frame 8
C -0.3900809135018527 -1.1755135687875788 0.8559000203514224
C 0.44543628314764344 -0.12260658616014872 0.22109635615050383
C 1.2674787662033027 0.5307569964171707 1.3004777875083695
C 2.65908451551819 0.37899204959167615 1.3762603044715085
C -1.1463362221823552 -0.5898429837729033 1.3358484208183967
C 0.3303756171083679 1.7307026797283869 -0.9759480228913033
C -0.8814730708450464 -1.693600689311705 0.12517395911998114
C -0.897152295743406 0.5003590841999592 -1.401425376441868
C 0.1029598300385727 -1.7014683175464214 1.533909169782043
C -0.9952022285785622 1.551125546382217 0.07648783781818788
C -0.36370610047285273 0.9378087029269924 -0.5749868003562919
C 1.1187093661202294 -0.6123385812673618 -0.47362190991137176
C 0.7523219883469583 1.2768458235810978 2.2458592840191365
C 0.417039000902748 0.6843222508806028 3.576477465863901
C -1.1636882003242397 0.4080979588720931 3.376802437577107
C 0.07623917842269305 1.9043122960359473 1.8491668817213125
C 0.25952409382942937 1.6123997634423781 5.554905053603118
C 1.6502080196612585 2.2785563566878726 4.605048115706784
C -0.002732571849819121 2.7496340750916817 4.220557259671193
C 0.6678186114918041 1.8544445508406033 4.583819863109098
C 1.027400191088629 -0.13791967947918726 3.9478328116596404
C -1.7239759946349222 0.9928617971462027 2.4060661837351063
C -1.562394623679754 -0.8438851725423153 3.326768421434894
23
Mode 7 - Frame 9
C -0.39967861607583666 -1.1637969039145113 0.8481798901024271
C 0.44400877186378546 -0.11588842583085471 0.21913483819409083
C 1.2693651824136907 0.5275023118051754 1.3021128165862748
C 2.638356932139307 0.3475722295087353 1.3886353872323582
C -1.1508234922632672 -0.5817913992050653 1.3340145456424433
C 0.3406507771000563 1.7375111235961704 -0.9736972811366668
C -0.8921143774012316 -1.6786906630369949 0.117061422999832
C -0.8910121370159229 0.514813234776259 -1.4038999027485235
C 0.09054284065962151 -1.6964659195764547 1.5235792014127147
C -0.991695901981555 1.5597934751411184 0.07543305976313606
C -0.3573208099752182 0.9495342279969161 -0.5755311778848847
C 1.116024779665499 -0.6079422685386309 -0.475373587664806
C 0.7550016076253707 1.2805846993265197 2.2433511726040125
C 0.415194684608555 0.6967058316522424 3.5745762000034054
C -1.155510603553091 0.4004263958956107 3.37850636258624
C 0.0762808063259356 1.9059638129924865 1.8475530756931529
C 0.24676840000929387 1.62660618896781 5.548955805849039
C 1.6327887713418265 2.2975176482831126 4.599062784894712
C -0.02253965250481299 2.75685196796377 4.210868003163966
C 0.6508209781023582 1.8705291523260414 4.5763523565421895
C 1.0303075545601557 -0.11986972359927267 3.949009042392446
C -1.7233503040300089 0.982904641003297 2.412227976494026
C -1.5297553363688543 -0.8507653368297365 3.3264527106368997
23
Mode 7 - Frame 10
C -0.41845455556643496 -1.1408756486461253 0.8330770363416125
C 0.4412161383891332 -0.10274572101596671 0.2152975300283675
C 1.2730555693940437 0.5211351879164383 1.3053114161256414
C 2.597807660237178 0.28610578624950217 1.412844702255173
C -1.1596019171902445 -0.5660401229507931 1.3304269444356347
C 0.36075202328610834 1.7508304496641776 -0.9692941658423285
C -0.9129319143544424 -1.6495222501820237 0.10119090751625151
C -0.8790001739610979 0.5430898201899645 -1.4087408066881388
C 0.06625154392090499 -1.6866797524319772 1.503370733860486
C -0.9848364920850518 1.5767505025788202 0.07336960251542485
C -0.3448292968147192 0.9724728164258962 -0.5765961410318575
C 1.1107729360661849 -0.5993417830432637 -0.47880038644836687
C 0.7602437339614891 1.2878990440061724 2.238444566277859
C 0.4115866574922369 0.7209317712927874 3.5708567627238033
C -1.1395128102301557 0.3854185540569615 3.3818397429052673
C 0.07636224279329615 1.9091946676897065 1.8443959947041648
C 0.22181449739757256 1.6543981510532193 5.537317321015393
C 1.598711579441349 2.334611532044509 4.587353710947859
C -0.06128814934525939 2.770972297154144 4.191912957153086
C 0.6175685894662792 1.901995381029523 4.561743709278417
C 1.0359952157684256 -0.08455868152469365 3.951310096930853
C -1.7221262685020138 0.9634255042206668 2.424282262100739
C -1.465903255223219 -0.8642249692105275 3.3258350871177322
23
Mode 7 - Frame 11
C -0.4455881333209545 -1.1077515718260351 0.8112515262498592
C 0.4371804342070712 -0.08375287098159016 0.20975214043362345
C 1.2783886395248785 0.5119338986177479 1.309933791978015
C 2.53920889757092 0.19727909833312457 1.4478301863042735
C -1.172287837670422 -0.5432775613654077 1.3252424125859295
C 0.3898008347517126 1.7700785394700183 -0.9629311142751424
C -0.9430158554461983 -1.6073702503541274 0.07825603035105483
C -0.8616413870042208 0.5839530179723859 -1.4157365175293184
C 0.031147586052479276 -1.672537518576443 1.4741669741283752
C -0.97492378801663 1.6012555252274496 0.07038764905834564
C -0.3267775000573998 1.0056219418280266 -0.5781351457974275
C 1.103183366088719 -0.5869130072671159 -0.48375253871160795
C 0.767819261279912 1.298469185659435 2.2313539072816386
C 0.40637260765201166 0.7559412799909899 3.5654817112820543
C -1.1163940006895756 0.36373034806010973 3.3866568938189143
C 0.0764799286603755 1.9138636562739777 1.839833618342922
C 0.18575299128050773 1.6945610075948434 5.5204982567370555
C 1.5494657807663856 2.388216827255486 4.570432636584073
C -0.1172845671233137 2.7913779365203264 4.164520548105634
C 0.569514734529628 1.9474680117649878 4.540632389303276
C 1.0442145966262106 -0.033529815235288474 3.9546354081498474
C -1.7203573842770845 0.9352757185469819 2.4417022104313513
C -1.3736290225851917 -0.8836758191631657 3.3249425439888656
23
Mode 7 - Frame 12
C -0.4798934817901713 -1.065872354558234 0.7836572393485938
C 0.43207803895581276 -0.05973995441203324 0.2027410295448806
C 1.2851313120505683 0.5003005844041412 1.3157779241380267
C 2.46512169125711 0.08497431825928647 1.4920628058477359
C -1.1883268181050157 -0.5144985476170794 1.3186875390133033
C 0.4265276390441597 1.794414159126595 -0.9548862223219037
C -0.9810513880920237 -1.5540769082135215 0.04925915569011181
C -0.8396944384320086 0.6356169102970534 -1.4245812891391578
C -0.013234821539326758 -1.654657301491306 1.4372442666518621
C -0.9623910225105115 1.6322375560091165 0.06661752506697306
C -0.30395436984368635 1.047532828356082 -0.5800809302883752
C 1.0935877703599135 -0.5711991383514883 -0.4900136116375625
C 0.7773971026854112 1.311833158374893 2.2223890914382425
C 0.3997804140856841 0.8002042742224773 3.558685961218521
C -1.0871645778446304 0.3363096565786766 3.392747282717
C 0.07662872049006289 1.9197667215398748 1.8340653443491222
C 0.1401599425177201 1.7453394490390455 5.4992336868298155
C 1.4872036530265926 2.4559907252885784 4.549039093949375
C -0.18808159368145072 2.8171770617048946 4.129887955740345
C 0.5087595973411152 2.0049596723674052 4.513941062603033
C 1.0546064707490606 0.030986668948428442 3.958839643992546
C -1.7181209600838983 0.8996855646938404 2.463726486153629
C -1.256965465201948 -0.9082677912091875 3.3238140896679282
23
Mode 7 - Frame 13
C -0.5198712926306548 -1.0170683195961052 0.7515001783874811
C 0.4261319517918467 -0.03175645098814353 0.19457061655101968
C 1.2929888998268073 0.486743676929588 1.3225883959870268
C 2.3787840077215208 -0.04590029618466057 1.5436093831598534
C -1.2070178780854663 -0.4809608627036397 1.3110488031466534
C 0.46932729858110955 1.8227737252796565 -0.9455110903646432
C -1.0253761770005612 -1.4919713985415786 0.015467586098547946
C -0.8141185152102105 0.6958235371585183 -1.434888562556384
C -0.06495595467233083 -1.633820552461987 1.3942163109224783
C -0.9477859375581946 1.668342531510384 0.062224003050792176
C -0.27735738648144764 1.0963737691580406 -0.582348454385536
C 1.0824055224578943 -0.5528869477715027 -0.49730996629540514
C 0.788558660548984 1.327406892417425 2.211941924217987
C 0.39209818728495716 0.8517862487419221 3.5507665194206064
C -1.0531020077319764 0.3043548954094771 3.3998447303797494
C 0.07680211536541852 1.926645871209228 1.8273432739755435
C 0.08702798611986462 1.8045142138327182 5.474452975037346
C 1.414646349971035 2.5349711815844955 4.524108083514508
C -0.2705850592372549 2.847242127139345 4.089528790529196
C 0.4379584689313727 2.0719577013928543 4.482836268233683
C 1.066716663372062 0.10617109108318962 3.9637390591784616
C -1.7155147383912517 0.8582105031651307 2.4893925227343088
C -1.1210113403449942 -0.9369260981648074 3.32249904302367
23
Mode 7 - Frame 14
C -0.5637743436738555 -0.9634724374552367 0.7161857612372203
C 0.4196020452567303 -0.001025374089292621 0.1855979877058638
C 1.3016179885628851 0.471855678103986 1.3300675572249443
C 2.283969218028828 -0.18962489634143936 1.6002170854641655
C -1.227544128600972 -0.4441302643874734 1.3026600543980738
C 0.5163292628652449 1.8539177888040173 -0.9352154566567679
C -1.0740530162025717 -1.4237680301262625 -0.021641824682544178
C -0.7860314079105151 0.7619415800594854 -1.446207860472879
C -0.12175535164308798 -1.6109379374068833 1.3469636350766374
C -0.9317468454550689 1.7079924910509523 0.057399101004367785
C -0.24814896577009976 1.1500101807560201 -0.5848386164050764
C 1.0701253402743585 -0.5327767661271442 -0.5053227169747939
C 0.8008161212328956 1.3445097408783049 2.200468996959467
C 0.38366167742443674 0.908432823745049 3.542069503496577
C -1.0156949881158823 0.2692626409515616 3.4076390442869684
C 0.07699253509834843 1.9342004534316644 1.8199611939535838
C 0.028679243536941477 1.869499080802352 5.447239157376028
C 1.3349649739118101 2.6217063712128277 4.496729210067738
C -0.3611891664503857 2.880259145196001 4.045206941656679
C 0.36020569835341404 2.14553396348071 4.448677434966531
C 1.0800159009664385 0.188737531146821 3.969119525753966
C -1.7126526235931523 0.8126631931690836 2.517578591215506
C -0.9717084956508512 -0.9683982344982504 3.3210548779047384
23
Mode 7 - Frame 15
C -0.6096838609189732 -0.9074271053667605 0.6792573973846524
C 0.412773707600016 0.03111018075997185 0.17621528994539645
C 1.310641445674073 0.4562872649165585 1.3378885326166843
C 2.1848211834604414 -0.3399180275170498 1.6594118845360806
C -1.2490084740081269 -0.4056164265478158 1.29388792134156
C 0.5654793205169012 1.8864852046778648 -0.9244492897952435
C -1.1249544942475382 -1.3524476174433953 -0.06044721733132126
C -0.7566606578988131 0.8310813632556122 -1.4580444752536739
C -0.18115060625023008 -1.5870095364068717 1.2975514077922978
C -0.914974731490144 1.7494545411372833 0.05235369029957738
C -0.21760565585228137 1.2060978945871301 -0.5874425843176192
C 1.0572839266975784 -0.5117475048556293 -0.5137016680215959
C 0.8136337748874368 1.3623942272112202 2.188471731637093
C 0.37483960046789333 0.9676682720837964 3.5329750147752264
C -0.9765783852523671 0.23256659311606073 3.415789575519643
C 0.07719165743278834 1.9421002967131555 1.812241736603353
C -0.03233616519184449 1.9374538994293853 5.4187816082640445
C 1.2516419833363694 2.7124055501852005 4.468099061757099
C -0.45593408106888617 2.9147851137525573 3.998859486598348
C 0.27889945478068406 2.222472822919656 4.412957467727619
C 1.0939229430324935 0.2750774395108051 3.9747458915113674
C -1.7096597038402277 0.7650342707127686 2.5470528251528313
C -0.815582181867189 -1.0013087168316797 3.3195447112567043
23
Mode 7 - Frame 16
C -0.6555933781640911 -0.8513817732782842 0.6423290335320844
C 0.40594536994330177 0.06324573560923646 0.16683259218492905
C 1.3196649027852607 0.44071885172913094 1.3457095080084243
C 2.085673148892054 -0.49021115869266085 1.718606683607996
C -1.2704728194152817 -0.3671025887081581 1.2851157882850461
C 0.6146293781685576 1.9190526205517124 -0.9136831229337192
C -1.175855972292505 -1.2811272047605275 -0.0992526099800985
C -0.727289907887111 0.9002211464517393 -1.4698810900344688
C -0.24054586085737245 -1.5630811354068601 1.248139180507958
C -0.898202617525219 1.7909165912236147 0.04730827959478695
C -0.18706234593446283 1.2621856084182406 -0.590046552230162
C 1.0444425131207984 -0.49071824358411414 -0.5220806190683979
C 0.8264514285419781 1.3802787135441354 2.176474466314719
C 0.3660175235113499 1.026903720422544 3.5238805260538757
C -0.9374617823888516 0.1958705452805597 3.423940106752317
C 0.07739077976722826 1.9500001399946467 1.8045222792531221
C -0.09335157392063073 2.005408718056419 5.390324059152061
C 1.1683189927609285 2.8031047291575737 4.4394689134464596
C -0.5506789956873871 2.9493110823091135 3.952512031540017
C 0.19759321120795376 2.2994116823586026 4.3772375004887065
C 1.1078299850985485 0.3614173478747895 3.9803722572687685
C -1.706666784087303 0.7174053482564534 2.5765270590901563
C -0.6594558680835261 -1.0342191991651088 3.31803454460867
23
Mode 7 - Frame 17
C -0.6994964292072919 -0.7977858911374155 0.6070146163818235
C 0.39941546340818534 0.09397681250808743 0.15785996333977317
C 1.3282939915213385 0.42583085290352896 1.3531886692463417
C 1.9908583591993612 -0.6339357588494399 1.7752143859123082
C -1.2909990699307874 -0.33027199039199173 1.2767270395364665
C 0.6616313424526931 1.9501966840760732 -0.9033874892258439
C -1.224532811494516 -1.2129238363452115 -0.1363620207611907
C -0.6992028005874155 0.9663391893527067 -1.4812003879509636
C -0.2973452578281297 -1.540198520351756 1.2008865046621167
C -0.8821635254220933 1.830566550764183 0.04248337754836255
C -0.15785392522311487 1.31582202001622 -0.5925367142497024
C 1.0321623309372625 -0.4706080619397556 -0.5300933697477866
C 0.8387088892258896 1.3973815620050154 2.165001539056199
C 0.3575810136508295 1.0835502954256708 3.5151835101298463
C -0.9000547627727576 0.16077829082264414 3.431734420659536
C 0.07758119950015817 1.957554722217083 1.7971401992311624
C -0.151700316503554 2.070393585026053 5.363110241490742
C 1.0886376167017033 2.8898399187859067 4.412090039999689
C -0.641283102900518 2.98232810036577 3.908190182667499
C 0.11984044062999494 2.372987944446458 4.343078667221554
C 1.121129222692925 0.4439837879384211 3.985752723844273
C -1.7038046692892037 0.6718580382604062 2.6047131275713538
C -0.5101530233893827 -1.065691335498552 3.3165903794897384
23
Mode 7 - Frame 18
C -0.7394742400477753 -0.7489818561752869 0.5748575554207109
C 0.3934693762442193 0.12196031593197708 0.14968955034591228
C 1.3361515792975776 0.41227394542897583 1.3599991410953418
C 1.9045206756637718 -0.7648103732933866 1.8267609632244257
C -1.309690129911238 -0.2967343054785521 1.2690883036698166
C 0.7044310019896429 1.9785562502291345 -0.8940123572685834
C -1.2688576004030532 -1.1508183266732688 -0.17015359035275449
C -0.6736268773656174 1.0265458162141714 -1.49150766136819
C -0.3490663909611337 -1.5193617713224374 1.157858548932733
C -0.8675584404697765 1.8666715262654505 0.038089855532181666
C -0.13125694186087628 1.3646629608181784 -0.5948042383468632
C 1.0209800830352433 -0.45229587135977006 -0.5373897244056293
C 0.8498704470894625 1.4129552960475473 2.1545543718359434
C 0.34989878685010256 1.1351322699451156 3.507264068331932
C -0.8659921926601035 0.12882352965344462 3.4388318683222856
C 0.0777545943755138 1.9644338718864363 1.7904181288575838
C -0.20483227290140932 2.1295683498197255 5.338329529698274
C 1.016080313646146 2.9688203750818234 4.387159029564822
C -0.723786568456322 3.01239316580022 3.8678310174563513
C 0.04903931222025251 2.4399859734719067 4.311973872852205
C 1.1332394153159264 0.519168210073182 3.9906521390301886
C -1.7011984475965571 0.6303829767316966 2.6303791641520333
C -0.37419889853242927 -1.0943496424541717 3.3152753328454803
23
Mode 7 - Frame 19
C -0.773779588516992 -0.7071026389074857 0.5472632685194455
C 0.38836698099296085 0.14597323250153396 0.14267843945716943
C 1.3428942518232672 0.40064063121536914 1.3658432732553536
C 1.830433469349962 -0.8771151533672246 1.870993582767888
C -1.3257291103458315 -0.2679552917302238 1.2625334300971904
C 0.7411578062820898 2.0028918698857114 -0.8859674653153446
C -1.3068931330488787 -1.097524984532663 -0.19915046501369746
C -0.6516799287934052 1.078209708538839 -1.5003524329780293
C -0.3934487985529396 -1.5014815542373006 1.1209358414562203
C -0.8550256749636579 1.8976535570471174 0.0343197315408091
C -0.10843381164716286 1.4065738473462341 -0.5967500228378109
C 1.011384487306438 -0.43658200244414247 -0.5436507973315838
C 0.8594482884949617 1.4263192687630053 2.1455895559925473
C 0.34330659328377505 1.1793952641766028 3.5004683182683984
C -0.8367627698151583 0.1014028381720116 3.4449222572203713
C 0.07790338620520118 1.9703369371523334 1.784649854863784
C -0.25042532166419695 2.1803467912639274 5.3170649597910336
C 0.9538181859063529 3.036594273114916 4.365765486930124
C -0.7945835950144591 3.0381922909847883 3.8331984250910613
C -0.011715824968260125 2.497477634074324 4.2852825461519615
C 1.1436312894387763 0.583684694256899 3.994856374872887
C -1.6989620234033709 0.5947928228785553 2.6524034398743113
C -0.25753534114918564 -1.1189416145001934 3.314146878524543
23
Mode 7 - Frame 20
C -0.8009131662715117 -0.6739785620873955 0.5254377584276921
C 0.38433127681089885 0.16496608253591055 0.1371330498624254
C 1.348227321954102 0.3914393419166786 1.3704656491077272
C 1.7718347066837044 -0.9659418412836025 1.9059790668169887
C -1.3384150308260092 -0.2451927301448384 1.2573488982474852
C 0.7702066177476942 2.022139959691552 -0.8796044137481586
C -1.3369770741406344 -1.0553729847047664 -0.2220853421788942
C -0.6343211418365281 1.1190729063212603 -1.507348143819209
C -0.4285527564213654 -1.4873393203817662 1.0917320817241092
C -0.8451129708952362 1.9221585796957468 0.031337778083729895
C -0.09038201488984346 1.4397229727483645 -0.5982890276033809
C 1.003794917328972 -0.42415322666799465 -0.5486029495948249
C 0.8670238158133845 1.436889410416268 2.138498896996327
C 0.3380925434435498 1.2144047728748055 3.4950932668266494
C -0.8136439602745782 0.07971463217515978 3.4497394081340182
C 0.07802107207228054 1.9750059257366046 1.7800874785025411
C -0.28648682778126183 2.2205096478055517 5.300245895512696
C 0.9045723872313897 3.0901995683258927 4.348844412566338
C -0.8505800127925134 3.0585979303509707 3.805806016043609
C -0.05976967990491139 2.5429502648097895 4.2641712261768205
C 1.1518506702965614 0.6347135605463042 3.9981816860918817
C -1.6971931391784416 0.5666430372048703 2.6698233882049234
C -0.16526110851115827 -1.1383924644528318 3.3132543353956763
23
Mode 7 - Frame 21
C -0.8196891057621098 -0.6510573068190094 0.5103349046668775
C 0.3815386433362466 0.17810878735079855 0.13329574169670202
C 1.3519177089344552 0.3850722180279416 1.3736642486470938
C 1.7312854347815751 -1.0274082845428356 1.9301883818398033
C -1.3471934557529865 -0.22944145389056617 1.2537612970406766
C 0.7903078639337463 2.035459285759559 -0.8752012984538203
C -1.3577946110938452 -1.0262045718497952 -0.23795585766247468
C -0.6223091787817032 1.1473494917349658 -1.5121890477588242
C -0.4528440531600819 -1.4775531532372888 1.0715236141718805
C -0.8382535609987329 1.9391156071334485 0.02927432083601867
C -0.07789050172934434 1.4626615611773444 -0.5993539907503537
C 0.9985430737296579 -0.4155527411726274 -0.5520297483783858
C 0.8722659421495029 1.4442037550959206 2.1335922906701734
C 0.33448451632723164 1.2386307125153504 3.4913738295470473
C -0.7976461669516429 0.06470679033651058 3.4530727884530457
C 0.07810250853964108 1.9782367804338246 1.776930397513553
C -0.31144073039298314 2.248301609890961 5.28860741067905
C 0.870495195330912 3.1272934520872893 4.337135338619485
C -0.8893285096329598 3.0727182595413445 3.7868509700327304
C -0.09302206854099038 2.574416493513271 4.249562578913049
C 1.1575383315048313 0.6700246026208834 4.0004827406302885
C -1.6959691036504465 0.5471639004222402 2.6818776738116363
C -0.10140902736552293 -1.1518520968336228 3.3126367118765088
23
Mode 7 - Frame 22
C -0.8292868083360939 -0.639340641945942 0.5026147744178822
C 0.3801111320523886 0.18482694768009258 0.13133422374028902
C 1.3538041251448432 0.38181753341594626 1.375299277724999
C 1.7105578514026918 -1.0588281046257764 1.942563464600653
C -1.3516807258338985 -0.2213898693227281 1.2519274218647232
C 0.8005830239254347 2.042267729627343 -0.8729505566991838
C -1.3684359176500305 -1.0112945455750852 -0.24606839378262382
C -0.6161690200542199 1.1618036423112656 -1.5146635740654797
C -0.4652610425390331 -1.472550755267322 1.0611936458025524
C -0.8347472344017257 1.94778353589235 0.02821954278096685
C -0.07150521123170986 1.474387086247268 -0.5998983682789465
C 0.9958584872749275 -0.4111564284438965 -0.55378142613182
C 0.8749455614279154 1.4479426308413426 2.1310841792550494
C 0.33264020003303874 1.2510142932869899 3.489472563686552
C -0.7894685701804942 0.05703522736002814 3.4547767134621785
C 0.07814413644288364 1.9798882973903638 1.7753165914853934
C -0.32419642421311873 2.262508035416393 5.282658162924971
C 0.8530759470114799 3.146254743682529 4.331150007807413
C -0.9091355902879537 3.079936152413433 3.7771617135255022
C -0.11001970193043642 2.590501094998709 4.24209507234614
C 1.160445694976358 0.6880745585007979 4.001658971363094
C -1.6953434130455332 0.5372067442793345 2.6880394665705563
C -0.06876974005462344 -1.158732261121044 3.3123210010785145
23
Mode 7 - Frame 23
C -0.8292868083360939 -0.639340641945942 0.5026147744178822
C 0.3801111320523886 0.18482694768009258 0.13133422374028902
C 1.3538041251448432 0.38181753341594626 1.375299277724999
C 1.7105578514026918 -1.0588281046257766 1.942563464600653
C -1.3516807258338985 -0.2213898693227281 1.2519274218647232
C 0.8005830239254348 2.042267729627343 -0.8729505566991838
C -1.3684359176500305 -1.011294545575085 -0.24606839378262385
C -0.6161690200542199 1.1618036423112656 -1.5146635740654797
C -0.4652610425390332 -1.472550755267322 1.0611936458025522
C -0.8347472344017257 1.94778353589235 0.028219542780966847
C -0.07150521123170983 1.4743870862472683 -0.5998983682789465
C 0.9958584872749275 -0.4111564284438965 -0.55378142613182
C 0.8749455614279154 1.4479426308413426 2.1310841792550494
C 0.3326402000330387 1.25101429328699 3.489472563686552
C -0.7894685701804942 0.05703522736002811 3.4547767134621785
C 0.07814413644288364 1.9798882973903638 1.7753165914853934
C -0.32419642421311873 2.262508035416393 5.282658162924971
C 0.8530759470114799 3.146254743682529 4.331150007807413
C -0.9091355902879538 3.079936152413433 3.7771617135255022
C -0.11001970193043642 2.590501094998709 4.24209507234614
C 1.160445694976358 0.6880745585007979 4.001658971363094
C -1.6953434130455332 0.5372067442793343 2.6880394665705563
C -0.06876974005462333 -1.158732261121044 3.3123210010785145
23
Mode 7 - Frame 24
C -0.81968910576211 -0.6510573068190094 0.5103349046668775
C 0.3815386433362466 0.17810878735079858 0.13329574169670202
C 1.3519177089344552 0.3850722180279416 1.3736642486470938
C 1.7312854347815751 -1.0274082845428356 1.9301883818398033
C -1.3471934557529865 -0.22944145389056614 1.2537612970406766
C 0.7903078639337463 2.035459285759559 -0.8752012984538203
C -1.3577946110938455 -1.0262045718497952 -0.2379558576624747
C -0.6223091787817031 1.1473494917349658 -1.5121890477588242
C -0.452844053160082 -1.4775531532372888 1.0715236141718805
C -0.8382535609987329 1.9391156071334485 0.029274320836018667
C -0.07789050172934434 1.4626615611773446 -0.5993539907503537
C 0.9985430737296579 -0.4155527411726274 -0.5520297483783858
C 0.8722659421495029 1.4442037550959206 2.1335922906701734
C 0.33448451632723164 1.2386307125153504 3.4913738295470473
C -0.7976461669516429 0.06470679033651056 3.4530727884530457
C 0.07810250853964108 1.9782367804338246 1.776930397513553
C -0.3114407303929832 2.248301609890961 5.28860741067905
C 0.8704951953309119 3.1272934520872893 4.337135338619485
C -0.88932850963296 3.0727182595413445 3.7868509700327304
C -0.09302206854099043 2.574416493513271 4.249562578913048
C 1.1575383315048313 0.6700246026208834 4.0004827406302885
C -1.6959691036504465 0.5471639004222401 2.6818776738116363
C -0.10140902736552282 -1.1518520968336228 3.3126367118765088
23
Mode 7 - Frame 25
C -0.8009131662715117 -0.6739785620873955 0.5254377584276921
C 0.38433127681089885 0.16496608253591058 0.1371330498624254
C 1.348227321954102 0.39143934191667856 1.3704656491077272
C 1.7718347066837044 -0.9659418412836025 1.9059790668169887
C -1.3384150308260092 -0.2451927301448384 1.2573488982474852
C 0.7702066177476943 2.022139959691552 -0.8796044137481586
C -1.3369770741406346 -1.0553729847047664 -0.22208534217889422
C -0.6343211418365281 1.1190729063212603 -1.507348143819209
C -0.4285527564213655 -1.4873393203817662 1.0917320817241092
C -0.8451129708952362 1.9221585796957468 0.031337778083729895
C -0.09038201488984343 1.4397229727483645 -0.5982890276033809
C 1.003794917328972 -0.4241532266679946 -0.5486029495948249
C 0.8670238158133845 1.436889410416268 2.138498896996327
C 0.3380925434435498 1.2144047728748055 3.4950932668266494
C -0.8136439602745782 0.07971463217515976 3.4497394081340182
C 0.07802107207228054 1.9750059257366046 1.7800874785025411
C -0.28648682778126183 2.2205096478055517 5.300245895512696
C 0.9045723872313896 3.0901995683258927 4.348844412566338
C -0.8505800127925134 3.0585979303509707 3.805806016043609
C -0.059769679904911444 2.5429502648097895 4.2641712261768205
C 1.1518506702965614 0.6347135605463042 3.9981816860918817
C -1.6971931391784416 0.5666430372048703 2.6698233882049234
C -0.16526110851115816 -1.1383924644528318 3.3132543353956763
23
Mode 7 - Frame 26
C -0.773779588516992 -0.7071026389074857 0.5472632685194455
C 0.38836698099296085 0.14597323250153396 0.14267843945716943
C 1.3428942518232672 0.40064063121536914 1.3658432732553536
C 1.830433469349962 -0.8771151533672246 1.870993582767888
C -1.3257291103458315 -0.2679552917302238 1.2625334300971904
C 0.7411578062820898 2.0028918698857114 -0.8859674653153446
C -1.3068931330488787 -1.097524984532663 -0.19915046501369746
C -0.6516799287934052 1.078209708538839 -1.5003524329780293
C -0.3934487985529396 -1.5014815542373006 1.1209358414562203
C -0.8550256749636579 1.8976535570471174 0.0343197315408091
C -0.10843381164716286 1.4065738473462341 -0.5967500228378109
C 1.011384487306438 -0.43658200244414247 -0.5436507973315838
C 0.8594482884949617 1.4263192687630053 2.1455895559925473
C 0.34330659328377505 1.1793952641766028 3.5004683182683984
C -0.8367627698151583 0.1014028381720116 3.4449222572203713
C 0.07790338620520118 1.9703369371523334 1.784649854863784
C -0.25042532166419695 2.1803467912639274 5.3170649597910336
C 0.9538181859063529 3.036594273114916 4.365765486930124
C -0.7945835950144591 3.0381922909847883 3.8331984250910613
C -0.011715824968260125 2.497477634074324 4.2852825461519615
C 1.1436312894387763 0.583684694256899 3.994856374872887
C -1.6989620234033709 0.5947928228785553 2.6524034398743113
C -0.25753534114918564 -1.1189416145001934 3.314146878524543
23
Mode 7 - Frame 27
C -0.7394742400477754 -0.7489818561752868 0.5748575554207108
C 0.3934693762442193 0.12196031593197712 0.14968955034591225
C 1.3361515792975776 0.4122739454289758 1.3599991410953418
C 1.9045206756637716 -0.7648103732933869 1.8267609632244257
C -1.309690129911238 -0.29673430547855206 1.2690883036698166
C 0.7044310019896429 1.9785562502291347 -0.8940123572685834
C -1.2688576004030532 -1.1508183266732686 -0.17015359035275454
C -0.6736268773656173 1.0265458162141716 -1.49150766136819
C -0.3490663909611338 -1.5193617713224374 1.157858548932733
C -0.8675584404697765 1.8666715262654505 0.03808985553218166
C -0.13125694186087622 1.3646629608181786 -0.5948042383468632
C 1.0209800830352433 -0.45229587135977 -0.5373897244056293
C 0.8498704470894625 1.4129552960475473 2.1545543718359434
C 0.34989878685010256 1.1351322699451156 3.507264068331932
C -0.8659921926601035 0.12882352965344457 3.4388318683222856
C 0.0777545943755138 1.9644338718864363 1.7904181288575838
C -0.20483227290140943 2.1295683498197255 5.338329529698274
C 1.0160803136461458 2.968820375081824 4.387159029564822
C -0.7237865684563223 3.01239316580022 3.867831017456351
C 0.04903931222025237 2.439985973471907 4.311973872852205
C 1.1332394153159264 0.5191682100731823 3.9906521390301886
C -1.7011984475965571 0.6303829767316966 2.6303791641520333
C -0.374198898532429 -1.0943496424541717 3.3152753328454803
23
Mode 7 - Frame 28
C -0.6994964292072919 -0.7977858911374155 0.6070146163818235
C 0.39941546340818534 0.09397681250808741 0.15785996333977317
C 1.3282939915213385 0.42583085290352896 1.3531886692463417
C 1.9908583591993612 -0.6339357588494399 1.7752143859123082
C -1.2909990699307874 -0.33027199039199173 1.2767270395364665
C 0.6616313424526931 1.9501966840760732 -0.9033874892258439
C -1.2245328114945158 -1.2129238363452115 -0.1363620207611907
C -0.6992028005874155 0.9663391893527067 -1.4812003879509636
C -0.2973452578281297 -1.5401985203517563 1.2008865046621169
C -0.8821635254220933 1.830566550764183 0.04248337754836255
C -0.1578539252231149 1.31582202001622 -0.5925367142497024
C 1.0321623309372625 -0.4706080619397556 -0.5300933697477866
C 0.8387088892258896 1.3973815620050154 2.165001539056199
C 0.3575810136508295 1.0835502954256708 3.5151835101298463
C -0.9000547627727576 0.16077829082264417 3.431734420659536
C 0.07758119950015817 1.957554722217083 1.7971401992311624
C -0.15170031650355398 2.070393585026053 5.363110241490743
C 1.0886376167017033 2.8898399187859063 4.412090039999689
C -0.641283102900518 2.98232810036577 3.908190182667499
C 0.11984044062999497 2.372987944446458 4.343078667221554
C 1.121129222692925 0.4439837879384211 3.985752723844273
C -1.7038046692892037 0.6718580382604062 2.6047131275713538
C -0.5101530233893828 -1.065691335498552 3.3165903794897384
23
Mode 7 - Frame 29
C -0.6555933781640911 -0.8513817732782842 0.6423290335320844
C 0.40594536994330177 0.06324573560923645 0.16683259218492905
C 1.3196649027852607 0.440718851729131 1.3457095080084243
C 2.0856731488920546 -0.49021115869266074 1.718606683607996
C -1.2704728194152817 -0.3671025887081581 1.2851157882850461
C 0.6146293781685576 1.9190526205517124 -0.9136831229337192
C -1.175855972292505 -1.2811272047605275 -0.0992526099800985
C -0.727289907887111 0.9002211464517393 -1.4698810900344688
C -0.24054586085737242 -1.5630811354068601 1.248139180507958
C -0.898202617525219 1.7909165912236147 0.04730827959478695
C -0.18706234593446286 1.2621856084182406 -0.590046552230162
C 1.0444425131207984 -0.49071824358411414 -0.5220806190683979
C 0.8264514285419781 1.3802787135441354 2.176474466314719
C 0.3660175235113499 1.026903720422544 3.5238805260538757
C -0.9374617823888517 0.1958705452805597 3.423940106752317
C 0.07739077976722826 1.9500001399946467 1.8045222792531221
C -0.0933515739206307 2.005408718056419 5.390324059152061
C 1.1683189927609285 2.8031047291575737 4.4394689134464596
C -0.5506789956873871 2.9493110823091135 3.952512031540017
C 0.19759321120795378 2.2994116823586026 4.3772375004887065
C 1.1078299850985485 0.36141734787478946 3.9803722572687685
C -1.706666784087303 0.7174053482564535 2.5765270590901563
C -0.6594558680835262 -1.0342191991651088 3.31803454460867
23
Mode 7 - Frame 30
C -0.6096838609189735 -0.9074271053667601 0.6792573973846521
C 0.41277370760001597 0.03111018075997211 0.17621528994539637
C 1.310641445674073 0.45628726491655835 1.3378885326166843
C 2.1848211834604405 -0.339918027517051 1.659411884536081
C -1.249008474008127 -0.4056164265478155 1.29388792134156
C 0.5654793205169015 1.886485204677865 -0.9244492897952434
C -1.1249544942475387 -1.3524476174433946 -0.06044721733132157
C -0.7566606578988129 0.8310813632556128 -1.4580444752536739
C -0.18115060625023058 -1.5870095364068715 1.2975514077922974
C -0.9149747314901439 1.7494545411372837 0.052353690299577336
C -0.21760565585228112 1.2060978945871306 -0.5874425843176192
C 1.0572839266975784 -0.511747504855629 -0.5137016680215959
C 0.8136337748874369 1.3623942272112202 2.188471731637093
C 0.3748396004678933 0.9676682720837968 3.5329750147752264
C -0.9765783852523667 0.23256659311606043 3.415789575519643
C 0.07719165743278834 1.9421002967131555 1.812241736603353
C -0.03233616519184499 1.937453899429386 5.4187816082640445
C 1.2516419833363688 2.7124055501852014 4.468099061757099
C -0.45593408106888694 2.9147851137525573 3.9988594865983473
C 0.2788994547806834 2.2224728229196566 4.412957467727619
C 1.0939229430324935 0.27507743951080577 3.9747458915113674
C -1.7096597038402277 0.7650342707127683 2.5470528251528313
C -0.8155821818671877 -1.0013087168316799 3.3195447112567043
