23
Mode 9 - Frame 1
C -0.5736319740988971 -0.9456447475803401 0.7165604430917809
C 0.3991529635198745 0.03325364511371783 0.1819258424610312
C 1.344211109320412 0.4915196959162243 1.3103684379004323
C 2.1617662931545354 -0.39593182546914524 1.6301481353732645
C -1.2277883757722496 -0.4337933580832321 1.3169429456608894
C 0.4773473520432321 1.8682909909737575 -0.9381884568138094
C -1.1037295757321157 -1.398183988441894 -0.01652137539977889
C -0.8381537513495777 0.7858983805116766 -1.437105080812437
C -0.143676022508556 -1.6035557059568937 1.3333556189536673
C -0.9478459512542794 1.7407708654103375 0.07693695641772685
C -0.3069342951035602 1.1717103861129587 -0.578644479041931
C 1.0377702625588523 -0.49896368666173435 -0.5255878577539631
C 0.8834815506596725 1.3862500359939611 2.1957221819066413
C 0.3896405574946743 0.9593951922073218 3.522904189868059
C -1.0205811149234145 0.2702633634443439 3.3641960578197017
C 0.13189873352093104 1.9534621288575462 1.8163496931225174
C -0.13693217516367656 1.8319065799445846 5.474800006789922
C 1.1576117695318546 2.6537994092422132 4.5685032981647655
C -0.479761530464495 2.8816861571769383 4.037805675881858
C 0.17165177482011107 2.123742677246751 4.501451585242071
C 1.1098358163081103 0.27251582795829205 3.968995221845125
C -1.6894243378935072 0.8738034583611112 2.470044406834176
C -0.732435569806312 -0.9703959552699611 3.3565017568004865
23
Mode 9 - Frame 2
C -0.5391557277290047 -0.9821920954405924 0.7522331667016351
C 0.3861275113156168 0.03530342978972191 0.1873868164294615
C 1.376313617580288 0.5252123006172434 1.2840511033793465
C 2.1397190121846354 -0.44949755166671007 1.6021633524719117
C -1.207495697654609 -0.46073882250263226 1.338990354787183
C 0.3930671734959674 1.8508919517140436 -0.9513271563058259
C -1.0834322880042762 -1.4419214605603012 0.02548469645977996
C -0.9160852055692956 0.742690110925657 -1.4170808383866447
C -0.10783925789939675 -1.6193787285002492 1.3675950142796183
C -0.9792805409811095 1.7324667079815583 0.10044581584291451
C -0.39235884417318956 1.1388257767686818 -0.5702308931847834
C 1.0191094391799378 -0.4867385826664784 -0.5369545639587594
C 0.9502766434638472 1.409063231460025 2.2026557527078903
C 0.4037946416765133 0.951483685620091 3.5132735083345144
C -1.0626607141593138 0.30631260402010785 3.314857424416414
C 0.1842148478703454 1.9643273944171074 1.8202781122296319
C -0.2369568375923978 1.7309721847935007 5.528370132494119
C 1.0676911272776237 2.5977546378818994 4.664519387648437
C -0.5025476059847278 2.8500337838300895 4.075049729809128
C 0.06909133310528123 2.0293275126995542 4.586078085179252
C 1.125053220663145 0.27006617112259956 3.9634958840380716
C -1.6700733545387174 0.9778189105767515 2.396401625923435
C -0.6529228636742067 -0.9408342297243772 3.391843602114425
23
Mode 9 - Frame 3
C -0.5077618992110454 -1.0154718544723917 0.7847164990157444
C 0.3742666257516232 0.03716994936168463 0.1923595410836065
C 1.4055459367978183 0.5558925505191266 1.2600867228565802
C 2.119642912523718 -0.498274126838039 1.5766806051306983
C -1.189017327064019 -0.4852751737122046 1.3590665711464156
C 0.31632223309878915 1.8350485084042256 -0.963291164057017
C -1.0649497199349185 -1.4817484963913654 0.06373513133959616
C -0.987049042051958 0.7033449632147435 -1.39884690345728
C -0.07520655100004844 -1.6337870620245076 1.3987731678955588
C -1.0079046582596747 1.724905000378352 0.12185281861023628
C -0.470145840354361 1.1088812817805072 -0.5625695408209981
C 1.002117024087059 -0.4756064885770115 -0.5473050070313275
C 1.0110997872260024 1.429836767497688 2.2089694137258604
C 0.41668325161583253 0.9442795231235863 3.5045038771707455
C -1.1009781025531362 0.3391387900467431 3.2699300103425335
C 0.23185353524339286 1.9742212291495576 1.8238553031590692
C -0.32803859475829106 1.6390620313812003 5.577150713825378
C 0.9858100201273007 2.546720661545356 4.7519509663613615
C -0.5232964467896293 2.8212113543122057 4.108963904506737
C -0.024299486921266267 1.9433537250230022 4.663138383408907
C 1.1389100825060745 0.2678355307622054 3.9584882255411267
C -1.652452484604783 1.0725346529763495 2.329343025323677
C -0.5805191502731414 -0.9139155294541675 3.424025638969312
23
Mode 9 - Frame 4
C -0.480822549495557 -1.0440295395120471 0.81259076253966
C 0.3640886844418839 0.03877162796775659 0.19662668449429976
C 1.4306304743509666 0.5822195714809882 1.2395226547548346
C 2.1024154160627795 -0.5401297805921691 1.5548136116882239
C -1.1731608574643482 -0.5063300554256147 1.3762941677473137
C 0.2504666530101364 1.821453095542219 -0.9735575955189769
C -1.0490896484378753 -1.5159244633579478 0.09655820168947102
C -1.0479438006210045 0.6695825091328689 -1.383200186476883
C -0.047204107691113606 -1.6461509932158036 1.4255274448790927
C -1.032467291811148 1.7184162255080775 0.14022237597656406
C -0.5368956186505368 1.0831856192690472 -0.55599525981212
C 0.9875356673584288 -0.4660539303227573 -0.5561868229424596
C 1.0632927187019061 1.447662740899618 2.2143872276777605
C 0.42774309321187154 0.9380975611883122 3.496978571339968
C -1.1338586263648425 0.3673072596773687 3.2313773591787402
C 0.2727327564060869 1.9827112250012024 1.8269249255019466
C -0.4061967368144448 1.560193034445649 5.619009805304325
C 0.9155470453724994 2.5029279098866786 4.826976854770522
C -0.5411012289720406 2.796478547098581 4.138065987802134
C -0.10443905828549649 1.8695787812865658 4.7292645751220626
C 1.1508007904817628 0.2659213965646587 3.9541911050600183
C -1.6373318446621317 1.1538111531204853 2.2717993876639797
C -0.5183888193103064 -0.8908163308313953 3.4516413579280423
23
Mode 9 - Frame 5
C -0.4595150574344483 -1.0666170426883488 0.8346377182018307
C 0.3560385122608154 0.040038464567145805 0.2000017520184681
C 1.450470915579694 0.6030427463557326 1.2232576475275025
C 2.0887894470638626 -0.5732352200143349 1.537518064687401
C -1.1606192926648848 -0.522983268279455 1.3899202159512378
C 0.19837863809001705 1.810699897908122 -0.9816777583730142
C -1.0365452347426343 -1.5429557077091243 0.1225193818325489
C -1.0961080881214966 0.6428783299336404 -1.3708245240587758
C -0.025055769115823828 -1.6559301589523532 1.4466885549447748
C -1.0518949366847372 1.7132839739691619 0.15475165013807335
C -0.5896908934492009 1.0628618129875216 -0.5507953777851373
C 0.976002644252201 -0.45849840053768703 -0.5632118337171581
C 1.1045743563365895 1.4617620710896406 2.218672410096336
C 0.4364907983158753 0.9332079812151849 3.4910264828174116
C -1.1598652489256023 0.3895869156218127 3.2008844067770377
C 0.3050658932333511 1.989426328413805 1.829352822032198
C -0.4680153779086291 1.4978121476083666 5.652117963771122
C 0.8599730321691648 2.4682903362942876 4.886318061538282
C -0.5551837981137665 2.7769163045456273 4.161084079008021
C -0.16782489716646393 1.8112270005429838 4.781566628432182
C 1.1602056635937248 0.26440742537942724 3.950792327379642
C -1.6253722792331382 1.2180962379449416 2.22628564603508
C -0.46924726438318315 -0.8725461796781284 3.4734838195571975
23
Mode 9 - Frame 6
C -0.4447706626754807 -1.0822471817256267 0.8498938082467886
C 0.3504679403617424 0.04091509232150249 0.20233723700993453
C 1.4642001379973058 0.6174520024806541 1.2120025600385826
C 2.079360525756874 -0.5961435785442641 1.5255498625254076
C -1.151940759228471 -0.5345069869610312 1.399349192066643
C 0.16233468453646716 1.8032588818381117 -0.9872967625375427
C -1.0278647299224526 -1.561660834356447 0.14048404362101352
C -1.1294368940717692 0.624399526388933 -1.3622607920356462
C -0.00972952394943935 -1.6626971627658256 1.4613316560404626
C -1.0653385115752836 1.7097325497811315 0.16480564209471354
C -0.6262242579018157 1.0487981107948756 -0.5471971545364317
C 0.9680220032197026 -0.45327011212886253 -0.5680730126748268
C 1.1331404944741417 1.471518549682359 2.221637677947309
C 0.4425440502386525 0.9298244813118377 3.486907746432801
C -1.1778613560358902 0.405004030005652 3.1797838414787996
C 0.3274398324942296 1.9940730571455931 1.831032882021111
C -0.5107927467862767 1.454645714960848 5.675028203830202
C 0.8215168315679848 2.4443217689436905 4.927381091178189
C -0.5649286783676493 2.7633795905229626 4.177012177085644
C -0.21168673824606932 1.7708486356136608 4.817758692636515
C 1.1667136637573796 0.2633597850121454 3.948440435393776
C -1.6170964787154114 1.262580340768828 2.1947909693453242
C -0.4352422072494298 -0.8599035692696767 3.4885984034718245
23
Mode 9 - Frame 7
C -0.4372337660210768 -1.0902368445462238 0.857692268332727
C 0.34762042946722405 0.0413631983914346 0.2035310675676716
C 1.4712181087040335 0.6248175862198115 1.2062492936192424
C 2.0745407412479127 -0.6078536509876988 1.5194320730665292
C -1.147504550710501 -0.5403975696670211 1.4041690045920387
C 0.14391008607785527 1.7994552554404044 -0.9901690305675994
C -1.023427513691656 -1.5712223395082718 0.14966704513069748
C -1.1464735897224405 0.614953710884788 -1.3578832665902507
C -0.0018952026492149443 -1.6661562541178854 1.4688167743828795
C -1.0722104677506403 1.707917167222627 0.16994494415357345
C -0.6448990286752693 1.0416091639620586 -0.5453578496881623
C 0.9639425365694182 -0.45059756638786075 -0.570557902968491
C 1.1477426558024126 1.476505771746493 2.2231534347966577
C 0.44563829282445255 0.9280949366598807 3.484802370730033
C -1.1870604314600832 0.4128848009507903 3.1689978592393047
C 0.3388767256809499 1.9964483268535094 1.831891678785348
C -0.5326592671588442 1.4325803167453155 5.686739238055452
C 0.8018591640685552 2.4320697492420544 4.9483712922527
C -0.5699099717054708 2.756460024389738 4.185154147717517
C -0.23410760859666896 1.7502084148029002 4.83625900086054
C 1.170040360136726 0.26282426237399964 3.9472382180678314
C -1.6128661353032727 1.2853192928403327 2.1786918260942807
C -0.4178598320801595 -0.853441042346865 3.496324529827033
23
Mode 9 - Frame 8
C -0.4372337660210768 -1.0902368445462238 0.857692268332727
C 0.34762042946722405 0.0413631983914346 0.2035310675676716
C 1.4712181087040335 0.6248175862198115 1.2062492936192424
C 2.0745407412479127 -0.6078536509876988 1.5194320730665292
C -1.147504550710501 -0.5403975696670211 1.404169004592039
C 0.14391008607785521 1.7994552554404044 -0.9901690305675994
C -1.023427513691656 -1.5712223395082718 0.1496670451306975
C -1.1464735897224407 0.614953710884788 -1.3578832665902507
C -0.0018952026492149165 -1.6661562541178854 1.4688167743828795
C -1.0722104677506403 1.707917167222627 0.16994494415357345
C -0.6448990286752693 1.0416091639620586 -0.5453578496881623
C 0.9639425365694182 -0.45059756638786075 -0.570557902968491
C 1.1477426558024126 1.476505771746493 2.2231534347966577
C 0.44563829282445255 0.9280949366598807 3.484802370730033
C -1.1870604314600832 0.4128848009507903 3.1689978592393047
C 0.3388767256809499 1.9964483268535094 1.831891678785348
C -0.5326592671588443 1.4325803167453155 5.686739238055452
C 0.8018591640685551 2.4320697492420544 4.9483712922527
C -0.5699099717054708 2.756460024389738 4.185154147717517
C -0.23410760859666896 1.7502084148029002 4.83625900086054
C 1.170040360136726 0.26282426237399964 3.9472382180678314
C -1.6128661353032727 1.2853192928403327 2.1786918260942807
C -0.4178598320801594 -0.853441042346865 3.496324529827033
23
Mode 9 - Frame 9
C -0.4447706626754807 -1.0822471817256267 0.8498938082467887
C 0.3504679403617424 0.04091509232150249 0.20233723700993453
C 1.4642001379973058 0.6174520024806541 1.2120025600385826
C 2.079360525756874 -0.5961435785442643 1.5255498625254076
C -1.151940759228471 -0.5345069869610312 1.399349192066643
C 0.1623346845364671 1.8032588818381117 -0.9872967625375428
C -1.0278647299224526 -1.561660834356447 0.14048404362101355
C -1.1294368940717692 0.624399526388933 -1.3622607920356462
C -0.009729523949439323 -1.6626971627658256 1.4613316560404626
C -1.0653385115752836 1.7097325497811315 0.16480564209471357
C -0.6262242579018158 1.0487981107948756 -0.5471971545364317
C 0.9680220032197026 -0.45327011212886253 -0.5680730126748268
C 1.133140494474142 1.471518549682359 2.221637677947309
C 0.44254405023865256 0.9298244813118377 3.486907746432801
C -1.1778613560358902 0.405004030005652 3.1797838414787996
C 0.32743983249422964 1.9940730571455931 1.831032882021111
C -0.5107927467862767 1.454645714960848 5.675028203830202
C 0.8215168315679847 2.4443217689436905 4.927381091178189
C -0.5649286783676493 2.7633795905229626 4.177012177085644
C -0.21168673824606937 1.7708486356136608 4.817758692636515
C 1.1667136637573796 0.2633597850121454 3.948440435393776
C -1.6170964787154114 1.262580340768828 2.1947909693453242
C -0.43524220724942975 -0.8599035692696767 3.4885984034718245
23
Mode 9 - Frame 10
C -0.4595150574344483 -1.0666170426883488 0.8346377182018307
C 0.3560385122608154 0.040038464567145805 0.2000017520184681
C 1.450470915579694 0.6030427463557326 1.2232576475275025
C 2.0887894470638626 -0.5732352200143349 1.5375180646874007
C -1.1606192926648848 -0.522983268279455 1.3899202159512378
C 0.198378638090017 1.810699897908122 -0.9816777583730142
C -1.0365452347426343 -1.5429557077091243 0.12251938183254893
C -1.0961080881214966 0.6428783299336404 -1.3708245240587758
C -0.025055769115823828 -1.6559301589523532 1.4466885549447748
C -1.0518949366847372 1.7132839739691619 0.15475165013807338
C -0.589690893449201 1.0628618129875216 -0.5507953777851373
C 0.976002644252201 -0.45849840053768703 -0.5632118337171581
C 1.1045743563365895 1.4617620710896406 2.218672410096336
C 0.4364907983158753 0.9332079812151849 3.4910264828174116
C -1.1598652489256023 0.3895869156218127 3.2008844067770377
C 0.3050658932333511 1.989426328413805 1.829352822032198
C -0.4680153779086292 1.4978121476083663 5.652117963771122
C 0.8599730321691648 2.4682903362942876 4.886318061538282
C -0.5551837981137665 2.7769163045456273 4.161084079008021
C -0.16782489716646398 1.8112270005429836 4.781566628432182
C 1.1602056635937248 0.26440742537942724 3.950792327379642
C -1.6253722792331382 1.2180962379449416 2.22628564603508
C -0.4692472643831831 -0.8725461796781284 3.4734838195571975
23
Mode 9 - Frame 11
C -0.4808225494955569 -1.0440295395120471 0.8125907625396601
C 0.3640886844418839 0.0387716279677566 0.19662668449429976
C 1.4306304743509666 0.5822195714809884 1.2395226547548344
C 2.1024154160627795 -0.5401297805921692 1.5548136116882239
C -1.173160857464348 -0.5063300554256148 1.3762941677473137
C 0.25046665301013626 1.8214530955422188 -0.973557595518977
C -1.0490896484378753 -1.515924463357948 0.0965582016894711
C -1.0479438006210047 0.6695825091328688 -1.383200186476883
C -0.04720410769111355 -1.6461509932158036 1.4255274448790929
C -1.0324672918111482 1.7184162255080775 0.1402223759765641
C -0.5368956186505369 1.0831856192690472 -0.55599525981212
C 0.9875356673584288 -0.4660539303227573 -0.5561868229424596
C 1.0632927187019061 1.447662740899618 2.2143872276777605
C 0.42774309321187154 0.9380975611883122 3.496978571339968
C -1.1338586263648425 0.36730725967736877 3.2313773591787402
C 0.27273275640608696 1.9827112250012024 1.8269249255019466
C -0.40619673681444496 1.5601930344456487 5.619009805304325
C 0.9155470453724993 2.502927909886678 4.826976854770522
C -0.5411012289720407 2.796478547098581 4.138065987802134
C -0.10443905828549666 1.8695787812865656 4.7292645751220626
C 1.1508007904817628 0.2659213965646587 3.9541911050600183
C -1.6373318446621317 1.1538111531204853 2.2717993876639797
C -0.5183888193103063 -0.8908163308313952 3.4516413579280423
23
Mode 9 - Frame 12
C -0.5077618992110454 -1.0154718544723917 0.7847164990157444
C 0.3742666257516232 0.03716994936168463 0.1923595410836065
C 1.4055459367978185 0.5558925505191266 1.2600867228565802
C 2.119642912523718 -0.49827412683803907 1.5766806051306983
C -1.189017327064019 -0.4852751737122046 1.3590665711464156
C 0.31632223309878915 1.8350485084042256 -0.9632911640570171
C -1.0649497199349185 -1.4817484963913656 0.06373513133959618
C -0.987049042051958 0.7033449632147435 -1.39884690345728
C -0.07520655100004842 -1.6337870620245076 1.398773167895559
C -1.0079046582596747 1.724905000378352 0.12185281861023631
C -0.470145840354361 1.1088812817805072 -0.5625695408209981
C 1.002117024087059 -0.4756064885770115 -0.5473050070313275
C 1.0110997872260024 1.429836767497688 2.2089694137258604
C 0.41668325161583253 0.9442795231235863 3.5045038771707455
C -1.1009781025531364 0.3391387900467431 3.2699300103425335
C 0.23185353524339292 1.9742212291495576 1.8238553031590692
C -0.3280385947582911 1.6390620313812003 5.577150713825378
C 0.9858100201273006 2.546720661545356 4.7519509663613615
C -0.5232964467896293 2.8212113543122057 4.108963904506737
C -0.024299486921266322 1.9433537250230022 4.663138383408907
C 1.1389100825060745 0.2678355307622054 3.9584882255411267
C -1.652452484604783 1.0725346529763495 2.329343025323677
C -0.5805191502731413 -0.9139155294541674 3.424025638969312
23
Mode 9 - Frame 13
C -0.5391557277290048 -0.9821920954405924 0.752233166701635
C 0.3861275113156168 0.0353034297897219 0.1873868164294615
C 1.376313617580288 0.5252123006172434 1.2840511033793465
C 2.1397190121846354 -0.44949755166671 1.6021633524719117
C -1.207495697654609 -0.4607388225026322 1.338990354787183
C 0.3930671734959674 1.8508919517140436 -0.9513271563058259
C -1.0834322880042762 -1.4419214605603012 0.025484696459779944
C -0.9160852055692956 0.742690110925657 -1.417080838386645
C -0.10783925789939677 -1.6193787285002492 1.3675950142796183
C -0.9792805409811095 1.7324667079815583 0.1004458158429145
C -0.39235884417318945 1.1388257767686818 -0.5702308931847834
C 1.0191094391799378 -0.4867385826664784 -0.5369545639587594
C 0.9502766434638472 1.409063231460025 2.2026557527078903
C 0.4037946416765133 0.951483685620091 3.5132735083345144
C -1.0626607141593138 0.30631260402010785 3.314857424416414
C 0.18421484787034537 1.9643273944171074 1.8202781122296319
C -0.23695683759239775 1.730972184793501 5.528370132494119
C 1.0676911272776237 2.5977546378818994 4.664519387648437
C -0.5025476059847278 2.8500337838300895 4.075049729809128
C 0.06909133310528129 2.0293275126995542 4.586078085179252
C 1.125053220663145 0.27006617112259956 3.9634958840380716
C -1.6700733545387176 0.9778189105767514 2.396401625923435
C -0.6529228636742067 -0.9408342297243772 3.391843602114425
23
Mode 9 - Frame 14
C -0.5736319740988971 -0.9456447475803401 0.7165604430917809
C 0.3991529635198745 0.03325364511371783 0.1819258424610312
C 1.344211109320412 0.4915196959162243 1.3103684379004323
C 2.1617662931545354 -0.39593182546914524 1.6301481353732645
C -1.2277883757722496 -0.4337933580832321 1.3169429456608894
C 0.4773473520432321 1.8682909909737575 -0.9381884568138094
C -1.1037295757321157 -1.398183988441894 -0.01652137539977889
C -0.8381537513495777 0.7858983805116766 -1.437105080812437
C -0.143676022508556 -1.6035557059568937 1.3333556189536673
C -0.9478459512542794 1.7407708654103375 0.07693695641772685
C -0.3069342951035602 1.1717103861129587 -0.578644479041931
C 1.0377702625588523 -0.49896368666173435 -0.5255878577539631
C 0.8834815506596725 1.3862500359939611 2.1957221819066413
C 0.3896405574946743 0.9593951922073218 3.522904189868059
C -1.0205811149234145 0.2702633634443439 3.3641960578197017
C 0.13189873352093104 1.9534621288575462 1.8163496931225174
C -0.13693217516367656 1.8319065799445846 5.474800006789922
C 1.1576117695318546 2.6537994092422132 4.5685032981647655
C -0.479761530464495 2.8816861571769383 4.037805675881858
C 0.17165177482011107 2.123742677246751 4.501451585242071
C 1.1098358163081103 0.27251582795829205 3.968995221845125
C -1.6894243378935072 0.8738034583611112 2.470044406834176
C -0.732435569806312 -0.9703959552699611 3.3565017568004865
23
Mode 9 - Frame 15
C -0.6096838609189732 -0.9074271053667605 0.6792573973846524
C 0.41277370760001597 0.031110180759971944 0.17621528994539645
C 1.310641445674073 0.4562872649165586 1.3378885326166843
C 2.184821183460441 -0.33991802751705036 1.6594118845360808
C -1.2490084740081269 -0.40561642654781577 1.29388792134156
C 0.5654793205169011 1.8864852046778648 -0.9244492897952435
C -1.1249544942475385 -1.3524476174433953 -0.060447217331321246
C -0.7566606578988132 0.8310813632556123 -1.4580444752536739
C -0.18115060625023013 -1.5870095364068717 1.2975514077922976
C -0.9149747314901441 1.7494545411372835 0.052353690299577434
C -0.21760565585228153 1.2060978945871303 -0.5874425843176192
C 1.0572839266975784 -0.5117475048556291 -0.5137016680215959
C 0.813633774887437 1.3623942272112202 2.188471731637093
C 0.3748396004678934 0.9676682720837965 3.5329750147752264
C -0.9765783852523671 0.23256659311606073 3.415789575519643
C 0.0771916574327885 1.9421002967131555 1.812241736603353
C -0.03233616519184494 1.9374538994293853 5.4187816082640445
C 1.251641983336369 2.712405550185201 4.468099061757099
C -0.4559340810688865 2.9147851137525573 3.998859486598348
C 0.27889945478068356 2.2224728229196558 4.412957467727619
C 1.0939229430324935 0.2750774395108053 3.9747458915113674
C -1.7096597038402277 0.7650342707127689 2.5470528251528313
C -0.8155821818671883 -1.0013087168316797 3.3195447112567043
23
Mode 9 - Frame 16
C -0.6457357477390495 -0.8692094631531807 0.6419543516775237
C 0.42639445168015755 0.028966716406226042 0.17050473742976166
C 1.2770717820277337 0.42105483391689263 1.3654086273329362
C 2.2078760737663465 -0.2839042295649552 1.6886756336988968
C -1.270228572244004 -0.3774394950123993 1.2708328970222305
C 0.6536112889905704 1.9046794183819722 -0.9107101227766777
C -1.146179412762961 -1.306711246444896 -0.10437305926286378
C -0.6751675644480484 0.8762643459995482 -1.4789838696949107
C -0.21862518999190445 -1.5704633668568497 1.261747196630928
C -0.8821035117260085 1.7581382168642294 0.02777042418142791
C -0.1282770166010025 1.2404854030613017 -0.5962406895933074
C 1.0767975908363046 -0.5245313230495239 -0.5018154782892287
C 0.7437859991152012 1.3385384184284792 2.1812212813675447
C 0.36003864344111236 0.9759413519602711 3.5430458396823936
C -0.9325756555813194 0.19486982278777737 3.4673830932195835
C 0.022484581344645718 1.9307384645687649 1.8081337800841886
C 0.07225984477998712 2.043001218914186 5.3627632097381674
C 1.3456721971408838 2.7710116911281886 4.367694825349432
C -0.4321066316732779 2.9478840703281763 3.959913297314838
C 0.3861471347412565 2.321202968592561 4.324463350213167
C 1.0780100697568766 0.2776390510633186 3.9804965611776097
C -1.729895069786948 0.656265083064426 2.6240612434714867
C -0.898728793928065 -1.0322214783933983 3.282587665712922
23
Mode 9 - Frame 17
C -0.680211994108942 -0.8326621152929284 0.6062816280676695
C 0.43941990388441526 0.026916931730221968 0.16504376346133134
C 1.244969273767858 0.38736222921587343 1.391725961854022
C 2.2299233547362465 -0.2303385033673903 1.71666041660025
C -1.2905212503616448 -0.35049403059299916 1.2487854878959366
C 0.7378914675378352 1.922078457641686 -0.8975714232846612
C -1.1664767004908008 -1.2629737743264888 -0.1463791311224227
C -0.5972361102283303 0.9194726155855679 -1.499008112120703
C -0.25446195460106374 -1.5546403443134942 1.227507801304977
C -0.8506689219991784 1.7664423742930087 0.004261564756240212
C -0.042852467531373006 1.273370012405579 -0.604654275450455
C 1.095458414215219 -0.5367564270447799 -0.4904487720844323
C 0.6769909063110264 1.3157252229624152 2.1742877105662957
C 0.34588455925927336 0.9838528585475019 3.5526765212159384
C -0.89049605634542 0.1588205822120134 3.5167217266228716
C -0.02983153300476872 1.9198731990092037 1.804205360977074
C 0.17228450720870853 2.14393561406527 5.3091930840339705
C 1.4355928393951147 2.8270564624885024 4.27167873586576
C -0.4093205561530451 2.979536443675025 3.9226692433875674
C 0.4887075764560865 2.415618133139758 4.239836850275985
C 1.062792665401842 0.2800887078990111 3.985995898984663
C -1.749246053141738 0.5522496308487855 2.6977040243822277
C -0.9782415000601705 -1.061783203938982 3.2472458203989834
23
Mode 9 - Frame 18
C -0.7116058226269012 -0.7993823562611291 0.5737982957535602
C 0.4512807894484088 0.02505041215825925 0.16007103880718634
C 1.2157369545503276 0.3566819793139904 1.4156903423767884
C 2.2499994543971638 -0.1815619281960614 1.7421431639414633
C -1.3089996209522348 -0.3259576793834269 1.2287092715367043
C 0.8146364079350134 1.937921900951504 -0.8856074155334701
C -1.1849592685601584 -1.2231467384954247 -0.18462956600223887
C -0.526272273745668 0.9588177632964814 -1.5172420470500678
C -0.287094661500412 -1.5402320107892358 1.1963296476890364
C -0.8220448047206133 1.774004081896215 -0.017145438011081544
C 0.03493452864979843 1.3033145073937535 -0.6123156278142403
C 1.112450829308098 -0.5478885211342468 -0.48009832901186433
C 0.6161677625488714 1.2949516869247524 2.1679740495483255
C 0.33299594931995413 0.9910570210440066 3.561446152379707
C -0.8521786679515976 0.12599439618537822 3.561649140696752
C -0.07747022037781616 1.9099793642767535 1.8006281700476368
C 0.26336626437460164 2.2358457674775707 5.260412502702711
C 1.5174739465454377 2.878090438825046 4.184247157152836
C -0.3885717153481436 3.0083588731929085 3.8887550686899583
C 0.5820983964826338 2.50159192081631 4.1627765520463305
C 1.0489358035589125 0.28231934825940525 3.991003557481608
C -1.7668669230756724 0.4575338884491875 2.7647626249819854
C -1.0506452134612356 -1.0887019042091919 3.2150637835440965
23
Mode 9 - Frame 19
C -0.7385451723423897 -0.7708246712214737 0.5459240322296446
C 0.46145873075814814 0.02344873355218728 0.1558038953964931
C 1.1906524169971793 0.3303549583521287 1.436254410478534
C 2.2672269508581024 -0.1397062744419313 1.7640101573839377
C -1.3248560905519056 -0.3049027976700167 1.2114816749358062
C 0.8804919880236661 1.9515173138135107 -0.8753409840715102
C -1.2008193400572016 -1.1889707715288422 -0.2174526363521137
C -0.46537751517662157 0.992580217378356 -1.5328887640304647
C -0.31509710480934683 -1.5278680795979398 1.1695753707055025
C -0.79748217116914 1.7804928567664895 -0.03551499537740933
C 0.10168430694597416 1.3290101699052135 -0.6188899088231185
C 1.127032186036728 -0.557441079388501 -0.4712165131007322
C 0.5639748310729676 1.2771257135228222 2.1625562355964254
C 0.3219361077239151 0.9972389829792806 3.5689714582104846
C -0.8192981441398914 0.09782592655475256 3.6002017918605453
C -0.11834944154051018 1.9014893684251086 1.7975585477047593
C 0.3415244064307554 2.314714764413122 5.218553411223764
C 1.587736921300239 2.9218831904837232 4.109221268743675
C -0.3707669331657323 3.0330916804065335 3.859652985394561
C 0.6622379678468642 2.5753668645527465 4.096650360333175
C 1.0370450955832242 0.28423348245695196 3.9953006779627165
C -1.7819875630183235 0.37625738830505184 2.822306262641683
C -1.1127755444240706 -1.111801102831964 3.1874480645853662
23
Mode 9 - Frame 20
C -0.7598526644034983 -0.748237168045172 0.5238770765674738
C 0.46950890293921665 0.022181896952798073 0.15242882787232476
C 1.1708119757684519 0.3095317834773843 1.452519417705866
C 2.2808529198570193 -0.10660083501976553 1.7813057043847607
C -1.337397655351369 -0.28824958481617646 1.197855626731882
C 0.9325800029437855 1.9622705114476078 -0.8672208212174729
C -1.2133637537524427 -1.1619395271776658 -0.2434138164951916
C -0.41721322767612945 1.0192843965775844 -1.545264426448572
C -0.33724544338463663 -1.5180889138613902 1.1484142606398204
C -0.7780545262955507 1.785625108305405 -0.05004426953891863
C 0.1544795817446383 1.3493339761867391 -0.6240897908501011
C 1.138565209142956 -0.5649966091735712 -0.46419150232603373
C 0.5226931934382841 1.2630263833327997 2.1582710531778497
C 0.3131884026199114 1.0021285629524082 3.574923546733041
C -0.7932915215791316 0.07554627061030861 3.630694744262248
C -0.15068257836777438 1.8947742650125061 1.795130651174508
C 0.4033430475249397 2.3770956512504045 5.185445252756967
C 1.6433109345035737 2.956520764076114 4.049880061975915
C -0.35668436402400644 3.0526539229594873 3.8366348941886743
C 0.7256238067278316 2.6337186452963284 4.044348307023056
C 1.0276402224712622 0.2857474536421834 3.998699455643093
C -1.7939471284473172 0.31197230348059557 2.8678200042705826
C -1.1619170993511938 -1.130071253985231 3.165605602956211
23
Mode 9 - Frame 21
C -0.7745970591624659 -0.732607029007894 0.508620986522516
C 0.47507947483828966 0.021305269198441383 0.15009334288085832
C 1.15708275335084 0.2951225273524628 1.463774505194786
C 2.290281841164008 -0.08369247648983619 1.793273906546754
C -1.3460761887877828 -0.27672586613460026 1.188426650616477
C 0.9686239564973355 1.969711527517618 -0.8616018170529444
C -1.2220442585726243 -1.143234400530343 -0.26137847828365623
C -0.3838844217258568 1.0377632001222918 -1.5538281584717015
C -0.35257168855102117 -1.5113219100479178 1.1337711595441327
C -0.7646109514050045 1.7891765324934354 -0.06009826149555882
C 0.19101294619725315 1.363397678379385 -0.6276880140988067
C 1.1465458501754542 -0.5702248975823957 -0.459330323368365
C 0.49412705530073187 1.2532699047400813 2.155305785326877
C 0.30713515069713415 1.0055120628557552 3.579042283117652
C -0.7752954144688438 0.06012915622646922 3.651795309560486
C -0.17305651762865293 1.890127536280718 1.793450591185595
C 0.44612041640258737 2.420262083897923 5.162535012697887
C 1.6817671351047536 2.9804893314267114 4.008817032336008
C -0.3469394837701237 3.066190636982152 3.8207067961110512
C 0.769485647807437 2.6740970102256516 4.008156242818723
C 1.0211322223076074 0.28679509400946523 4.001051347628959
C -1.802222928965044 0.26748820065670903 2.8993146809603383
C -1.1959221564849474 -1.1427138643936825 3.150491019041584
23
Mode 9 - Frame 22
C -0.7821339558168698 -0.724617366187297 0.5008225264365775
C 0.477926985732808 0.020857163128509278 0.14889951232312126
C 1.1500647826441124 0.2877569436133054 1.4695277716141262
C 2.2951016256729693 -0.0719824040464015 1.7993916960056324
C -1.3505123973057527 -0.2708352834286103 1.1836068380910811
C 0.9870485549559473 1.9735151539153253 -0.8587295490228877
C -1.226481474803421 -1.1336728953785182 -0.2705614797933402
C -0.36684772607518534 1.0472090156264369 -1.558205683917097
C -0.36040600985124555 -1.507862818695858 1.1262860412017157
C -0.7577389952296476 1.79099191505194 -0.0652375635544187
C 0.20968771697070673 1.370586625212202 -0.6295273189470761
C 1.1506253168257385 -0.5728974433233975 -0.45684543307470077
C 0.479524893972461 1.2482826826759474 2.153790028477528
C 0.3040409081113341 1.0072416075077122 3.5811476588204196
C -0.7660963390446507 0.05224838528133097 3.662581291799981
C -0.18449341081537324 1.8877522665728017 1.7925917944213579
C 0.4679869367751548 2.4423274821134555 5.150823978472637
C 1.7014248026041834 2.9927413511283474 3.987826831261497
C -0.3419581904323022 3.0731102031153767 3.812564825479178
C 0.7919065181580367 2.694737231036412 3.9896559345946976
C 1.017805525928261 0.287330616647611 4.002253564954904
C -1.8064532723771827 0.24474924858520442 2.915413824211382
C -1.2133045316542177 -1.1491763913164943 3.1427648926863756
23
Mode 9 - Frame 23
C -0.7821339558168698 -0.724617366187297 0.5008225264365775
C 0.477926985732808 0.020857163128509278 0.14889951232312126
C 1.1500647826441124 0.28775694361330534 1.4695277716141262
C 2.2951016256729693 -0.0719824040464015 1.7993916960056324
C -1.3505123973057527 -0.2708352834286103 1.183606838091081
C 0.9870485549559473 1.9735151539153253 -0.8587295490228877
C -1.226481474803421 -1.1336728953785182 -0.2705614797933402
C -0.3668477260751853 1.0472090156264369 -1.558205683917097
C -0.3604060098512456 -1.507862818695858 1.1262860412017157
C -0.7577389952296476 1.79099191505194 -0.06523756355441873
C 0.20968771697070673 1.370586625212202 -0.6295273189470761
C 1.1506253168257388 -0.5728974433233975 -0.45684543307470077
C 0.47952489397246095 1.2482826826759474 2.153790028477528
C 0.3040409081113341 1.0072416075077122 3.5811476588204196
C -0.7660963390446506 0.05224838528133097 3.662581291799981
C -0.18449341081537324 1.8877522665728017 1.7925917944213579
C 0.4679869367751549 2.4423274821134555 5.150823978472637
C 1.7014248026041834 2.9927413511283474 3.987826831261497
C -0.3419581904323022 3.0731102031153767 3.812564825479178
C 0.7919065181580367 2.694737231036412 3.989655934594697
C 1.017805525928261 0.287330616647611 4.002253564954904
C -1.8064532723771827 0.24474924858520442 2.915413824211382
C -1.2133045316542177 -1.1491763913164943 3.1427648926863756
23
Mode 9 - Frame 24
C -0.7745970591624659 -0.732607029007894 0.5086209865225159
C 0.47507947483828966 0.021305269198441383 0.15009334288085832
C 1.15708275335084 0.2951225273524628 1.463774505194786
C 2.290281841164008 -0.08369247648983613 1.793273906546754
C -1.3460761887877828 -0.27672586613460026 1.188426650616477
C 0.9686239564973356 1.969711527517618 -0.8616018170529443
C -1.2220442585726243 -1.143234400530343 -0.2613784782836563
C -0.38388442172585674 1.0377632001222918 -1.5538281584717015
C -0.35257168855102117 -1.5113219100479178 1.1337711595441327
C -0.7646109514050045 1.7891765324934354 -0.06009826149555884
C 0.1910129461972532 1.363397678379385 -0.6276880140988067
C 1.1465458501754544 -0.5702248975823958 -0.459330323368365
C 0.4941270553007318 1.2532699047400813 2.155305785326877
C 0.3071351506971341 1.0055120628557552 3.579042283117652
C -0.7752954144688438 0.06012915622646922 3.651795309560486
C -0.17305651762865298 1.890127536280718 1.793450591185595
C 0.4461204164025874 2.420262083897923 5.162535012697887
C 1.6817671351047538 2.9804893314267114 4.008817032336008
C -0.3469394837701237 3.066190636982152 3.8207067961110512
C 0.769485647807437 2.6740970102256516 4.008156242818723
C 1.0211322223076074 0.28679509400946523 4.001051347628959
C -1.802222928965044 0.267488200656709 2.8993146809603383
C -1.1959221564849474 -1.1427138643936827 3.150491019041584
23
Mode 9 - Frame 25
C -0.7598526644034983 -0.748237168045172 0.5238770765674738
C 0.46950890293921665 0.02218189695279807 0.15242882787232476
C 1.1708119757684519 0.3095317834773843 1.452519417705866
C 2.2808529198570193 -0.1066008350197655 1.7813057043847607
C -1.337397655351369 -0.28824958481617646 1.197855626731882
C 0.9325800029437856 1.9622705114476078 -0.8672208212174729
C -1.2133637537524427 -1.1619395271776658 -0.24341381649519162
C -0.4172132276761294 1.0192843965775844 -1.545264426448572
C -0.3372454433846367 -1.5180889138613902 1.1484142606398204
C -0.7780545262955507 1.785625108305405 -0.05004426953891863
C 0.15447958174463836 1.3493339761867391 -0.6240897908501011
C 1.138565209142956 -0.5649966091735712 -0.46419150232603373
C 0.5226931934382841 1.2630263833327997 2.1582710531778497
C 0.3131884026199114 1.0021285629524082 3.574923546733041
C -0.7932915215791315 0.07554627061030858 3.630694744262248
C -0.15068257836777438 1.8947742650125061 1.795130651174508
C 0.40334304752493977 2.3770956512504045 5.185445252756967
C 1.6433109345035737 2.956520764076114 4.049880061975915
C -0.35668436402400644 3.0526539229594873 3.8366348941886743
C 0.7256238067278316 2.633718645296329 4.044348307023056
C 1.0276402224712622 0.2857474536421834 3.998699455643093
C -1.7939471284473172 0.3119723034805955 2.8678200042705826
C -1.161917099351194 -1.130071253985231 3.165605602956211
23
Mode 9 - Frame 26
C -0.7385451723423897 -0.7708246712214737 0.5459240322296446
C 0.46145873075814814 0.02344873355218728 0.1558038953964931
C 1.1906524169971793 0.3303549583521287 1.436254410478534
C 2.2672269508581024 -0.1397062744419313 1.7640101573839377
C -1.3248560905519056 -0.3049027976700167 1.2114816749358062
C 0.8804919880236661 1.9515173138135107 -0.8753409840715102
C -1.2008193400572016 -1.1889707715288422 -0.2174526363521137
C -0.46537751517662157 0.992580217378356 -1.5328887640304647
C -0.31509710480934683 -1.5278680795979398 1.1695753707055025
C -0.79748217116914 1.7804928567664895 -0.03551499537740933
C 0.10168430694597416 1.3290101699052135 -0.6188899088231185
C 1.127032186036728 -0.557441079388501 -0.4712165131007322
C 0.5639748310729676 1.2771257135228222 2.1625562355964254
C 0.3219361077239151 0.9972389829792806 3.5689714582104846
C -0.8192981441398914 0.09782592655475256 3.6002017918605453
C -0.11834944154051018 1.9014893684251086 1.7975585477047593
C 0.3415244064307554 2.314714764413122 5.218553411223764
C 1.587736921300239 2.9218831904837232 4.109221268743675
C -0.3707669331657323 3.0330916804065335 3.859652985394561
C 0.6622379678468642 2.5753668645527465 4.096650360333175
C 1.0370450955832242 0.28423348245695196 3.9953006779627165
C -1.7819875630183235 0.37625738830505184 2.822306262641683
C -1.1127755444240706 -1.111801102831964 3.1874480645853662
23
Mode 9 - Frame 27
C -0.7116058226269012 -0.799382356261129 0.5737982957535602
C 0.4512807894484088 0.025050412158259247 0.16007103880718632
C 1.2157369545503274 0.35668197931399037 1.4156903423767884
C 2.2499994543971638 -0.18156192819606132 1.7421431639414633
C -1.3089996209522348 -0.32595767938342685 1.2287092715367043
C 0.8146364079350135 1.937921900951504 -0.88560741553347
C -1.1849592685601584 -1.2231467384954244 -0.18462956600223893
C -0.526272273745668 0.9588177632964814 -1.5172420470500678
C -0.2870946615004121 -1.5402320107892358 1.1963296476890362
C -0.8220448047206131 1.774004081896215 -0.017145438011081586
C 0.03493452864979854 1.3033145073937535 -0.6123156278142403
C 1.112450829308098 -0.5478885211342468 -0.48009832901186433
C 0.6161677625488713 1.2949516869247524 2.1679740495483255
C 0.3329959493199541 0.9910570210440066 3.561446152379707
C -0.8521786679515976 0.12599439618537817 3.561649140696752
C -0.07747022037781624 1.9099793642767535 1.8006281700476368
C 0.2633662643746018 2.2358457674775707 5.260412502702711
C 1.5174739465454379 2.878090438825046 4.184247157152836
C -0.38857171534814355 3.008358873192909 3.8887550686899583
C 0.5820983964826341 2.50159192081631 4.1627765520463305
C 1.0489358035589125 0.28231934825940525 3.991003557481608
C -1.7668669230756724 0.45753388844918735 2.7647626249819854
C -1.0506452134612358 -1.0887019042091919 3.2150637835440965
23
Mode 9 - Frame 28
C -0.680211994108942 -0.8326621152929284 0.6062816280676695
C 0.43941990388441526 0.026916931730221968 0.16504376346133134
C 1.244969273767858 0.38736222921587343 1.391725961854022
C 2.2299233547362465 -0.2303385033673903 1.71666041660025
C -1.2905212503616448 -0.35049403059299916 1.2487854878959368
C 0.7378914675378352 1.922078457641686 -0.8975714232846612
C -1.1664767004908008 -1.2629737743264888 -0.14637913112242268
C -0.5972361102283303 0.9194726155855679 -1.499008112120703
C -0.25446195460106374 -1.5546403443134942 1.227507801304977
C -0.8506689219991784 1.7664423742930087 0.004261564756240219
C -0.042852467531373034 1.273370012405579 -0.604654275450455
C 1.095458414215219 -0.5367564270447799 -0.4904487720844323
C 0.6769909063110264 1.3157252229624152 2.1742877105662957
C 0.34588455925927336 0.9838528585475019 3.5526765212159384
C -0.89049605634542 0.1588205822120134 3.5167217266228716
C -0.029831533004768707 1.9198731990092037 1.804205360977074
C 0.1722845072087085 2.14393561406527 5.3091930840339705
C 1.4355928393951147 2.8270564624885024 4.27167873586576
C -0.4093205561530451 2.979536443675025 3.9226692433875674
C 0.4887075764560864 2.415618133139758 4.239836850275986
C 1.062792665401842 0.2800887078990111 3.985995898984663
C -1.749246053141738 0.5522496308487855 2.6977040243822277
C -0.9782415000601704 -1.061783203938982 3.2472458203989834
23
Mode 9 - Frame 29
C -0.6457357477390495 -0.8692094631531808 0.6419543516775237
C 0.42639445168015755 0.028966716406226046 0.17050473742976166
C 1.2770717820277337 0.4210548339168927 1.3654086273329362
C 2.2078760737663465 -0.2839042295649552 1.6886756336988968
C -1.270228572244004 -0.3774394950123994 1.2708328970222305
C 0.6536112889905704 1.904679418381972 -0.9107101227766777
C -1.146179412762961 -1.306711246444896 -0.10437305926286378
C -0.6751675644480484 0.8762643459995482 -1.4789838696949107
C -0.21862518999190445 -1.5704633668568497 1.261747196630928
C -0.8821035117260085 1.7581382168642294 0.02777042418142792
C -0.1282770166010025 1.2404854030613017 -0.5962406895933074
C 1.0767975908363046 -0.5245313230495239 -0.5018154782892287
C 0.7437859991152013 1.3385384184284792 2.1812212813675447
C 0.36003864344111236 0.9759413519602711 3.5430458396823936
C -0.9325756555813194 0.1948698227877774 3.4673830932195835
C 0.02248458134464574 1.9307384645687649 1.8081337800841886
C 0.07225984477998706 2.043001218914186 5.3627632097381674
C 1.3456721971408836 2.7710116911281886 4.367694825349432
C -0.4321066316732779 2.9478840703281763 3.959913297314838
C 0.38614713474125645 2.321202968592561 4.324463350213167
C 1.0780100697568766 0.2776390510633186 3.9804965611776097
C -1.729895069786948 0.656265083064426 2.6240612434714867
C -0.898728793928065 -1.032221478393398 3.282587665712922
23
Mode 9 - Frame 30
C -0.6096838609189735 -0.9074271053667602 0.6792573973846521
C 0.4127737076000161 0.031110180759971927 0.1762152899453964
C 1.3106414456740727 0.4562872649165583 1.3378885326166845
C 2.184821183460441 -0.3399180275170499 1.659411884536081
C -1.249008474008127 -0.40561642654781555 1.2938879213415597
C 0.5654793205169018 1.8864852046778648 -0.9244492897952434
C -1.1249544942475387 -1.3524476174433948 -0.06044721733132161
C -0.7566606578988125 0.8310813632556127 -1.458044475253674
C -0.18115060625023044 -1.5870095364068717 1.2975514077922974
C -0.9149747314901437 1.7494545411372835 0.05235369029957723
C -0.21760565585228078 1.2060978945871306 -0.5874425843176192
C 1.0572839266975784 -0.5117475048556293 -0.5137016680215958
C 0.8136337748874365 1.36239422721122 2.188471731637093
C 0.3748396004678933 0.9676682720837965 3.5329750147752264
C -0.9765783852523667 0.23256659311606043 3.4157895755196432
C 0.07719165743278805 1.9421002967131555 1.812241736603353
C -0.03233616519184409 1.9374538994293862 5.4187816082640445
C 1.2516419833363697 2.7124055501852014 4.468099061757098
C -0.45593408106888633 2.9147851137525573 3.998859486598348
C 0.27889945478068445 2.2224728229196566 4.412957467727618
C 1.0939229430324935 0.2750774395108053 3.9747458915113674
C -1.7096597038402277 0.765034270712768 2.5470528251528317
C -0.815582181867189 -1.0013087168316799 3.3195447112567043
